
     Program PWSCF v.7.5 starts on 24Jul2026 at 13:48:14 

     This program is part of the open-source Quantum ESPRESSO suite
     for quantum simulation of materials; please cite
         "P. Giannozzi et al., J. Phys.:Condens. Matter 21 395502 (2009);
         "P. Giannozzi et al., J. Phys.:Condens. Matter 29 465901 (2017);
         "P. Giannozzi et al., J. Chem. Phys. 152 154105 (2020);
          URL http://www.quantum-espresso.org", 
     in publications or presentations arising from this work. More details at
     http://www.quantum-espresso.org/quote

     Serial multi-threaded version, running on   32 processor cores
     9628 MiB available memory on the printing compute node when the environment starts

     Reading input from /home/tenant3/nexus-mat/dft/runs/dft-paper-worker-09/jobs/Pt-Rh-08_Pt2Rh3/input.in

     Current dimensions of program PWSCF are:
     Max number of different atomic species (ntypx) = 10
     Max number of k-points (npk) =  40000
     Max angular momentum in pseudopotentials (lmaxx) =  4
     file Pt.pbe-spfn-rrkjus_psl.1.0.0.UPF: wavefunction(s)  5P renormalized


     G-vector sticks info
     --------------------
     sticks:   dense  smooth     PW     G-vecs:    dense   smooth      PW
     Sum        4245    2121    619               220741    77979   12129

     Using Slab Decomposition



     bravais-lattice index     =            0
     lattice parameter (alat)  =       7.3592  a.u.
     unit-cell volume          =     500.7749 (a.u.)^3
     number of atoms/cell      =            5
     number of atomic types    =            2
     number of electrons       =       115.00
     number of Kohn-Sham states=           70
     kinetic-energy cutoff     =     110.0000  Ry
     charge density cutoff     =     880.0000  Ry
     scf convergence threshold =      1.0E-08
     mixing beta               =       0.3000
     number of iterations used =            8  plain     mixing
     Exchange-correlation= PBE
                           (   1   4   3   4   0   0   0)

     celldm(1)=   7.359224  celldm(2)=   0.000000  celldm(3)=   0.000000
     celldm(4)=   0.000000  celldm(5)=   0.000000  celldm(6)=   0.000000

     crystal axes: (cart. coord. in units of alat)
               a(1) = (   0.913398   0.000000   0.407067 )  
               a(2) = (   0.457022   1.119541   0.204092 )  
               a(3) = (   0.000000   0.000000   1.228701 )  

     reciprocal axes: (cart. coord. in units 2 pi/alat)
               b(1) = (  1.094812 -0.446927  0.000000 )  
               b(2) = (  0.000000  0.893223  0.000000 )  
               b(3) = ( -0.362710 -0.000301  0.813868 )  


     PseudoPot. # 1 for Pt read from file:
     /home/tenant3/nexus-mat/dft/pseudo/SSSP_1.3.0_PBE_precision/Pt.pbe-spfn-rrkjus_psl.1.0.0.UPF
     MD5 check sum: ed006ba81d2b6b3b17616bb61ae12f04
     Pseudo is Ultrasoft + core correction, Zval = 32.0
     Generated using "atomic" code by A. Dal Corso  v.5.1
     Using radial grid of 1277 points,  8 beta functions with: 
                l(1) =   0
                l(2) =   0
                l(3) =   1
                l(4) =   1
                l(5) =   2
                l(6) =   2
                l(7) =   3
                l(8) =   3
     Q(r) pseudized with 0 coefficients 


     PseudoPot. # 2 for Rh read from file:
     /home/tenant3/nexus-mat/dft/pseudo/SSSP_1.3.0_PBE_precision/Rh_ONCV_PBE-1.0.oncvpsp.upf
     MD5 check sum: ba07c69523b14cacd10683cd4c4284c1
     Pseudo is Norm-conserving, Zval = 17.0
     Generated using ONCVPSP code by D. R. Hamann
     Using radial grid of 1442 points,  6 beta functions with: 
                l(1) =   0
                l(2) =   0
                l(3) =   1
                l(4) =   1
                l(5) =   2
                l(6) =   2

     atomic species   valence    mass     pseudopotential
     Pt               32.00   195.08400     Pt( 1.00)
     Rh               17.00   102.90549     Rh( 1.00)

     No symmetry found



   Cartesian axes

     site n.     atom                  positions (alat units)
         1        Pt     tau(   1) = (   0.9985598   0.4579489   1.0864870  )
         2        Pt     tau(   2) = (   0.7242379   0.6877327   0.4738157  )
         3        Rh     tau(   3) = (   0.6328888   0.0130696   0.6780854  )
         4        Rh     tau(   4) = (   0.4494272   0.9112264   1.0909740  )
         5        Rh     tau(   5) = (   0.3599753   0.2344292   1.2909246  )

     number of k points=   144  Marzari-Vanderbilt smearing, width (Ry)=  0.0200

     Number of k-points >= 100: set verbosity='high' to print them.

     Dense  grid:   220741 G-vectors     FFT dimensions: (  72,  90,  90)

     Smooth grid:    77979 G-vectors     FFT dimensions: (  50,  64,  64)

     Estimated max dynamical RAM per process >       3.55 GB

     Initial potential from superposition of free atoms

     starting charge     114.9984, renormalised to     115.0000
     Starting wfcs are   64 randomized atomic wfcs +    6 random wfcs

     total cpu time spent up to now is       65.1 secs

     Self-consistent Calculation

     iteration #  1     ecut=   110.00 Ry     beta= 0.30
     Davidson diagonalization with overlap
     ethr =  1.00E-02,  avg # of iterations =  3.0

     total cpu time spent up to now is      297.5 secs

     total energy              =   -2715.98784667 Ry
     estimated scf accuracy    <       1.26660112 Ry

     iteration #  2     ecut=   110.00 Ry     beta= 0.30
     Davidson diagonalization with overlap
     ethr =  1.10E-03,  avg # of iterations =  2.1

     total cpu time spent up to now is      524.8 secs

     total energy              =   -2716.31795444 Ry
     estimated scf accuracy    <       2.65097339 Ry

     iteration #  3     ecut=   110.00 Ry     beta= 0.30
     Davidson diagonalization with overlap
     ethr =  1.10E-03,  avg # of iterations =  1.5

     total cpu time spent up to now is      710.4 secs

     total energy              =   -2716.48287924 Ry
     estimated scf accuracy    <       0.12054332 Ry

     iteration #  4     ecut=   110.00 Ry     beta= 0.30
     Davidson diagonalization with overlap
     ethr =  1.05E-04,  avg # of iterations =  1.4

     total cpu time spent up to now is      894.1 secs

     total energy              =   -2716.48682240 Ry
     estimated scf accuracy    <       0.02135830 Ry

     iteration #  5     ecut=   110.00 Ry     beta= 0.30
     Davidson diagonalization with overlap
     ethr =  1.86E-05,  avg # of iterations =  2.9

     total cpu time spent up to now is     1111.7 secs

     total energy              =   -2716.48283659 Ry
     estimated scf accuracy    <       0.06211639 Ry

     iteration #  6     ecut=   110.00 Ry     beta= 0.30
     Davidson diagonalization with overlap
     ethr =  1.86E-05,  avg # of iterations =  2.1

     total cpu time spent up to now is     1312.4 secs

     total energy              =   -2716.49089116 Ry
     estimated scf accuracy    <       0.00461713 Ry

     iteration #  7     ecut=   110.00 Ry     beta= 0.30
     Davidson diagonalization with overlap
     ethr =  4.01E-06,  avg # of iterations =  2.1

     total cpu time spent up to now is     1494.0 secs

     total energy              =   -2716.49065933 Ry
     estimated scf accuracy    <       0.00201969 Ry

     iteration #  8     ecut=   110.00 Ry     beta= 0.30
     Davidson diagonalization with overlap
     ethr =  1.76E-06,  avg # of iterations =  1.5

     total cpu time spent up to now is     1672.2 secs

     total energy              =   -2716.49078706 Ry
     estimated scf accuracy    <       0.00004769 Ry

     iteration #  9     ecut=   110.00 Ry     beta= 0.30
     Davidson diagonalization with overlap
     ethr =  4.15E-08,  avg # of iterations =  1.9

     total cpu time spent up to now is     1868.4 secs

     total energy              =   -2716.49078953 Ry
     estimated scf accuracy    <       0.00001175 Ry

     iteration # 10     ecut=   110.00 Ry     beta= 0.30
     Davidson diagonalization with overlap
     ethr =  1.02E-08,  avg # of iterations =  2.0

     total cpu time spent up to now is     2076.6 secs

     total energy              =   -2716.49078898 Ry
     estimated scf accuracy    <       0.00002727 Ry

     iteration # 11     ecut=   110.00 Ry     beta= 0.30
     Davidson diagonalization with overlap
     ethr =  1.02E-08,  avg # of iterations =  1.1

     total cpu time spent up to now is     2251.2 secs

     total energy              =   -2716.49079134 Ry
     estimated scf accuracy    <       0.00000014 Ry

     iteration # 12     ecut=   110.00 Ry     beta= 0.30
     Davidson diagonalization with overlap
     ethr =  1.20E-10,  avg # of iterations =  2.0

     total cpu time spent up to now is     2470.3 secs

     total energy              =   -2716.49079137 Ry
     estimated scf accuracy    <       0.00000003 Ry

     iteration # 13     ecut=   110.00 Ry     beta= 0.30
     Davidson diagonalization with overlap
     ethr =  2.56E-11,  avg # of iterations =  1.0

     total cpu time spent up to now is     2642.4 secs

     End of self-consistent calculation

     Number of k-points >= 100: set verbosity='high' to print the bands.

     the Fermi energy is    23.5000 ev

!    total energy              =   -2716.49079137 Ry
     estimated scf accuracy    <          3.5E-09 Ry
     smearing contrib. (-TS)   =      -0.00207889 Ry
     internal energy E=F+TS    =   -2716.48871248 Ry

     The total energy is F=E-TS. E is the sum of the following terms:
     one-electron contribution =   -1698.55723620 Ry
     hartree contribution      =     923.75050115 Ry
     xc contribution           =    -216.76662103 Ry
     ewald contribution        =   -1724.91535640 Ry

     convergence has been achieved in  13 iterations

     Forces acting on atoms (cartesian axes, Ry/au):

     atom    1 type  1   force =    -0.00087659   -0.00075107    0.00222037
     atom    2 type  1   force =     0.00087452    0.00071954   -0.00225366
     atom    3 type  2   force =     0.00000301    0.00000167    0.00000897
     atom    4 type  2   force =    -0.00032346    0.00165249    0.00078194
     atom    5 type  2   force =     0.00032252   -0.00162263   -0.00075761

     Total force =     0.004402     Total SCF correction =     0.000219


     Computing stress (Cartesian axis) and pressure

          total   stress  (Ry/bohr**3)                   (kbar)     P=      -29.91
  -0.00019170  -0.00000238   0.00001355          -28.20       -0.35        1.99
  -0.00000238  -0.00020084  -0.00001773           -0.35      -29.54       -2.61
   0.00001355  -0.00001773  -0.00021752            1.99       -2.61      -32.00


     Writing all to output data dir /home/tenant3/nexus-mat/dft/runs/dft-paper-worker-09/jobs/Pt-Rh-08_Pt2Rh3/tmp/Pt-Rh-08_Pt2Rh3.save/ :
     XML data file, charge density, pseudopotentials, collected wavefunctions

     init_run     :     66.36s CPU     64.99s WALL (       1 calls)
     electrons    :   2629.82s CPU   2577.39s WALL (       1 calls)
     forces       :     41.29s CPU     38.62s WALL (       1 calls)
     stress       :    138.66s CPU    134.29s WALL (       1 calls)

     Called by init_run:
     wfcinit      :     64.53s CPU     62.91s WALL (       1 calls)
     potinit      :      0.20s CPU      0.13s WALL (       1 calls)
     hinit0       :      0.38s CPU      0.38s WALL (       1 calls)

     Called by electrons:
     c_bands      :   2303.34s CPU   2261.76s WALL (      13 calls)
     sum_band     :    309.29s CPU    295.60s WALL (      13 calls)
     v_of_rho     :      2.16s CPU      1.05s WALL (      14 calls)
     newd         :     15.97s CPU     20.17s WALL (      14 calls)
     mix_rho      :      0.21s CPU      0.20s WALL (      13 calls)

     Called by c_bands:
     init_us_2    :     19.33s CPU     12.02s WALL (    4176 calls)
     cegterg      :   2254.76s CPU   2216.18s WALL (    1872 calls)

     Called by *egterg:
     cdiaghg      :     19.97s CPU     20.03s WALL (    5424 calls)
     h_psi        :   1150.80s CPU   1125.63s WALL (    5568 calls)
     s_psi        :    212.62s CPU    221.11s WALL (    5568 calls)
     g_psi        :      2.64s CPU      2.67s WALL (    3552 calls)

     Called by h_psi:
     h_psi:calbec :    260.57s CPU    261.29s WALL (    5568 calls)
     vloc_psi     :    652.95s CPU    641.10s WALL (    5568 calls)
                                        0.00s GPU  (    5568 calls)
     add_vuspsi   :    220.33s CPU    220.42s WALL (    5568 calls)

     General routines
     calbec       :    530.02s CPU    531.45s WALL (    9888 calls)
     fft          :      0.92s CPU      0.92s WALL (     205 calls)
     ffts         :      0.05s CPU      0.04s WALL (      27 calls)
     fftw         :    643.43s CPU    677.09s WALL (  709842 calls)
     interpolate  :      0.10s CPU      0.10s WALL (      14 calls)


     PWSCF        :  47m56.43s CPU  46m55.86s WALL


   This run was terminated on:  14:35:10  24Jul2026            

=------------------------------------------------------------------------------=
   JOB DONE.
=------------------------------------------------------------------------------=
