
     Program PWSCF v.7.5 starts on 20Jul2026 at 19:30: 1 

     This program is part of the open-source Quantum ESPRESSO suite
     for quantum simulation of materials; please cite
         "P. Giannozzi et al., J. Phys.:Condens. Matter 21 395502 (2009);
         "P. Giannozzi et al., J. Phys.:Condens. Matter 29 465901 (2017);
         "P. Giannozzi et al., J. Chem. Phys. 152 154105 (2020);
          URL http://www.quantum-espresso.org", 
     in publications or presentations arising from this work. More details at
     http://www.quantum-espresso.org/quote

     Serial multi-threaded version, running on    1 processor cores
     3663 MiB available memory on the printing compute node when the environment starts

     Reading input from /home/tenant3/nexus-mat/dft/runs/dft-paper-worker-04/jobs/Pt-Pd-Rh-02_Pd2Pt3Rh3/input.in

     Current dimensions of program PWSCF are:
     Max number of different atomic species (ntypx) = 10
     Max number of k-points (npk) =  40000
     Max angular momentum in pseudopotentials (lmaxx) =  4
     file Pt.pbe-spfn-rrkjus_psl.1.0.0.UPF: wavefunction(s)  5P renormalized


     G-vector sticks info
     --------------------
     sticks:   dense  smooth     PW     G-vecs:    dense   smooth      PW
     Sum        3813    1901    517               357457   126377   18261

     Using Slab Decomposition



     bravais-lattice index     =            0
     lattice parameter (alat)  =       7.3841  a.u.
     unit-cell volume          =     811.1891 (a.u.)^3
     number of atoms/cell      =            8
     number of atomic types    =            3
     number of electrons       =       183.00
     number of Kohn-Sham states=          110
     kinetic-energy cutoff     =     110.0000  Ry
     charge density cutoff     =     880.0000  Ry
     scf convergence threshold =      1.0E-08
     mixing beta               =       0.3000
     number of iterations used =            8  plain     mixing
     Exchange-correlation= PBE
                           (   1   4   3   4   0   0   0)

     celldm(1)=   7.384088  celldm(2)=   0.000000  celldm(3)=   0.000000
     celldm(4)=   0.000000  celldm(5)=   0.000000  celldm(6)=   0.000000

     crystal axes: (cart. coord. in units of alat)
               a(1) = (   1.000000   0.000000  -0.000045 )  
               a(2) = (  -0.000010   1.001343  -0.000494 )  
               a(3) = (   0.000000   0.000000   2.012096 )  

     reciprocal axes: (cart. coord. in units 2 pi/alat)
               b(1) = (  1.000000  0.000010 -0.000000 )  
               b(2) = ( -0.000000  0.998659  0.000000 )  
               b(3) = (  0.000022  0.000245  0.496994 )  


     PseudoPot. # 1 for Pd read from file:
     /home/tenant3/nexus-mat/dft/pseudo/SSSP_1.3.0_PBE_precision/Pd_ONCV_PBE-1.0.oncvpsp.upf
     MD5 check sum: eb77f42b51d86fb18e25f68156a31cf1
     Pseudo is Norm-conserving, Zval = 18.0
     Generated using ONCVPSP code by D. R. Hamann
     Using radial grid of 1410 points,  6 beta functions with: 
                l(1) =   0
                l(2) =   0
                l(3) =   1
                l(4) =   1
                l(5) =   2
                l(6) =   2

     PseudoPot. # 2 for Pt read from file:
     /home/tenant3/nexus-mat/dft/pseudo/SSSP_1.3.0_PBE_precision/Pt.pbe-spfn-rrkjus_psl.1.0.0.UPF
     MD5 check sum: ed006ba81d2b6b3b17616bb61ae12f04
     Pseudo is Ultrasoft + core correction, Zval = 32.0
     Generated using "atomic" code by A. Dal Corso  v.5.1
     Using radial grid of 1277 points,  8 beta functions with: 
                l(1) =   0
                l(2) =   0
                l(3) =   1
                l(4) =   1
                l(5) =   2
                l(6) =   2
                l(7) =   3
                l(8) =   3
     Q(r) pseudized with 0 coefficients 


     PseudoPot. # 3 for Rh read from file:
     /home/tenant3/nexus-mat/dft/pseudo/SSSP_1.3.0_PBE_precision/Rh_ONCV_PBE-1.0.oncvpsp.upf
     MD5 check sum: ba07c69523b14cacd10683cd4c4284c1
     Pseudo is Norm-conserving, Zval = 17.0
     Generated using ONCVPSP code by D. R. Hamann
     Using radial grid of 1442 points,  6 beta functions with: 
                l(1) =   0
                l(2) =   0
                l(3) =   1
                l(4) =   1
                l(5) =   2
                l(6) =   2

     atomic species   valence    mass     pseudopotential
     Pd               18.00   106.42000     Pd( 1.00)
     Pt               32.00   195.08400     Pt( 1.00)
     Rh               17.00   102.90549     Rh( 1.00)

     No symmetry found



   Cartesian axes

     site n.     atom                  positions (alat units)
         1        Pd     tau(   1) = (   0.0010110   0.2801738   1.9433933  )
         2        Pd     tau(   2) = (   0.5009277   0.7807620   0.9434433  )
         3        Pt     tau(   3) = (   0.5010093   0.2800749   1.4433242  )
         4        Pt     tau(   4) = (   0.5008573   0.2801486   0.4373826  )
         5        Pt     tau(   5) = (   0.0009192   0.7809088   0.4369731  )
         6        Rh     tau(   6) = (   0.0009735   0.2800740   0.9482843  )
         7        Rh     tau(   7) = (   0.0010532   0.7807796   1.4431574  )
         8        Rh     tau(   8) = (   0.5009748   0.7808698   1.9384097  )

     number of k points=    98  Marzari-Vanderbilt smearing, width (Ry)=  0.0200
                       cart. coord. in units 2pi/alat
        k(    1) = (   0.0000028   0.0000307   0.0621243), wk =   0.0204082
        k(    2) = (   0.0000083   0.0000920   0.1863728), wk =   0.0204082
        k(    3) = (   0.0000028   0.1426962   0.0621243), wk =   0.0204082
        k(    4) = (   0.0000083   0.1427576   0.1863728), wk =   0.0204082
        k(    5) = (  -0.0000083   0.1425735  -0.1863728), wk =   0.0204082
        k(    6) = (  -0.0000028   0.1426349  -0.0621243), wk =   0.0204082
        k(    7) = (   0.0000028   0.2853618   0.0621243), wk =   0.0204082
        k(    8) = (   0.0000083   0.2854231   0.1863728), wk =   0.0204082
        k(    9) = (  -0.0000083   0.2852391  -0.1863728), wk =   0.0204082
        k(   10) = (  -0.0000028   0.2853004  -0.0621243), wk =   0.0204082
        k(   11) = (   0.0000028   0.4280273   0.0621243), wk =   0.0204082
        k(   12) = (   0.0000083   0.4280886   0.1863728), wk =   0.0204082
        k(   13) = (  -0.0000083   0.4279046  -0.1863728), wk =   0.0204082
        k(   14) = (  -0.0000028   0.4279660  -0.0621243), wk =   0.0204082
        k(   15) = (   0.1428599   0.0000321   0.0621243), wk =   0.0204082
        k(   16) = (   0.1428655   0.0000935   0.1863728), wk =   0.0204082
        k(   17) = (   0.1428488  -0.0000906  -0.1863728), wk =   0.0204082
        k(   18) = (   0.1428544  -0.0000292  -0.0621243), wk =   0.0204082
        k(   19) = (   0.1428599   0.1426977   0.0621243), wk =   0.0204082
        k(   20) = (   0.1428655   0.1427590   0.1863728), wk =   0.0204082
        k(   21) = (   0.1428488   0.1425750  -0.1863728), wk =   0.0204082
        k(   22) = (   0.1428544   0.1426363  -0.0621243), wk =   0.0204082
        k(   23) = (   0.1428599   0.2853632   0.0621243), wk =   0.0204082
        k(   24) = (   0.1428655   0.2854245   0.1863728), wk =   0.0204082
        k(   25) = (   0.1428488   0.2852405  -0.1863728), wk =   0.0204082
        k(   26) = (   0.1428544   0.2853019  -0.0621243), wk =   0.0204082
        k(   27) = (   0.1428599   0.4280287   0.0621243), wk =   0.0204082
        k(   28) = (   0.1428655   0.4280901   0.1863728), wk =   0.0204082
        k(   29) = (   0.1428488   0.4279061  -0.1863728), wk =   0.0204082
        k(   30) = (   0.1428544   0.4279674  -0.0621243), wk =   0.0204082
        k(   31) = (   0.1428599  -0.4279645   0.0621243), wk =   0.0204082
        k(   32) = (   0.1428655  -0.4279032   0.1863728), wk =   0.0204082
        k(   33) = (   0.1428488  -0.4280872  -0.1863728), wk =   0.0204082
        k(   34) = (   0.1428544  -0.4280259  -0.0621243), wk =   0.0204082
        k(   35) = (   0.1428599  -0.2852990   0.0621243), wk =   0.0204082
        k(   36) = (   0.1428655  -0.2852376   0.1863728), wk =   0.0204082
        k(   37) = (   0.1428488  -0.2854217  -0.1863728), wk =   0.0204082
        k(   38) = (   0.1428544  -0.2853603  -0.0621243), wk =   0.0204082
        k(   39) = (   0.1428599  -0.1426334   0.0621243), wk =   0.0204082
        k(   40) = (   0.1428655  -0.1425721   0.1863728), wk =   0.0204082
        k(   41) = (   0.1428488  -0.1427561  -0.1863728), wk =   0.0204082
        k(   42) = (   0.1428544  -0.1426948  -0.0621243), wk =   0.0204082
        k(   43) = (   0.2857171   0.0000335   0.0621243), wk =   0.0204082
        k(   44) = (   0.2857226   0.0000949   0.1863728), wk =   0.0204082
        k(   45) = (   0.2857060  -0.0000891  -0.1863728), wk =   0.0204082
        k(   46) = (   0.2857115  -0.0000278  -0.0621243), wk =   0.0204082
        k(   47) = (   0.2857171   0.1426991   0.0621243), wk =   0.0204082
        k(   48) = (   0.2857226   0.1427604   0.1863728), wk =   0.0204082
        k(   49) = (   0.2857060   0.1425764  -0.1863728), wk =   0.0204082
        k(   50) = (   0.2857115   0.1426378  -0.0621243), wk =   0.0204082
        k(   51) = (   0.2857171   0.2853646   0.0621243), wk =   0.0204082
        k(   52) = (   0.2857226   0.2854260   0.1863728), wk =   0.0204082
        k(   53) = (   0.2857060   0.2852420  -0.1863728), wk =   0.0204082
        k(   54) = (   0.2857115   0.2853033  -0.0621243), wk =   0.0204082
        k(   55) = (   0.2857171   0.4280302   0.0621243), wk =   0.0204082
        k(   56) = (   0.2857226   0.4280915   0.1863728), wk =   0.0204082
        k(   57) = (   0.2857060   0.4279075  -0.1863728), wk =   0.0204082
        k(   58) = (   0.2857115   0.4279688  -0.0621243), wk =   0.0204082
        k(   59) = (   0.2857171  -0.4279631   0.0621243), wk =   0.0204082
        k(   60) = (   0.2857226  -0.4279017   0.1863728), wk =   0.0204082
        k(   61) = (   0.2857060  -0.4280858  -0.1863728), wk =   0.0204082
        k(   62) = (   0.2857115  -0.4280244  -0.0621243), wk =   0.0204082
        k(   63) = (   0.2857171  -0.2852975   0.0621243), wk =   0.0204082
        k(   64) = (   0.2857226  -0.2852362   0.1863728), wk =   0.0204082
        k(   65) = (   0.2857060  -0.2854202  -0.1863728), wk =   0.0204082
        k(   66) = (   0.2857115  -0.2853589  -0.0621243), wk =   0.0204082
        k(   67) = (   0.2857171  -0.1426320   0.0621243), wk =   0.0204082
        k(   68) = (   0.2857226  -0.1425707   0.1863728), wk =   0.0204082
        k(   69) = (   0.2857060  -0.1427547  -0.1863728), wk =   0.0204082
        k(   70) = (   0.2857115  -0.1426933  -0.0621243), wk =   0.0204082
        k(   71) = (   0.4285742   0.0000350   0.0621243), wk =   0.0204082
        k(   72) = (   0.4285797   0.0000963   0.1863728), wk =   0.0204082
        k(   73) = (   0.4285631  -0.0000877  -0.1863728), wk =   0.0204082
        k(   74) = (   0.4285687  -0.0000264  -0.0621243), wk =   0.0204082
        k(   75) = (   0.4285742   0.1427005   0.0621243), wk =   0.0204082
        k(   76) = (   0.4285797   0.1427619   0.1863728), wk =   0.0204082
        k(   77) = (   0.4285631   0.1425778  -0.1863728), wk =   0.0204082
        k(   78) = (   0.4285687   0.1426392  -0.0621243), wk =   0.0204082
        k(   79) = (   0.4285742   0.2853661   0.0621243), wk =   0.0204082
        k(   80) = (   0.4285797   0.2854274   0.1863728), wk =   0.0204082
        k(   81) = (   0.4285631   0.2852434  -0.1863728), wk =   0.0204082
        k(   82) = (   0.4285687   0.2853047  -0.0621243), wk =   0.0204082
        k(   83) = (   0.4285742   0.4280316   0.0621243), wk =   0.0204082
        k(   84) = (   0.4285797   0.4280930   0.1863728), wk =   0.0204082
        k(   85) = (   0.4285631   0.4279089  -0.1863728), wk =   0.0204082
        k(   86) = (   0.4285687   0.4279703  -0.0621243), wk =   0.0204082
        k(   87) = (   0.4285742  -0.4279616   0.0621243), wk =   0.0204082
        k(   88) = (   0.4285797  -0.4279003   0.1863728), wk =   0.0204082
        k(   89) = (   0.4285631  -0.4280843  -0.1863728), wk =   0.0204082
        k(   90) = (   0.4285687  -0.4280230  -0.0621243), wk =   0.0204082
        k(   91) = (   0.4285742  -0.2852961   0.0621243), wk =   0.0204082
        k(   92) = (   0.4285797  -0.2852348   0.1863728), wk =   0.0204082
        k(   93) = (   0.4285631  -0.2854188  -0.1863728), wk =   0.0204082
        k(   94) = (   0.4285687  -0.2853574  -0.0621243), wk =   0.0204082
        k(   95) = (   0.4285742  -0.1426306   0.0621243), wk =   0.0204082
        k(   96) = (   0.4285797  -0.1425692   0.1863728), wk =   0.0204082
        k(   97) = (   0.4285631  -0.1427532  -0.1863728), wk =   0.0204082
        k(   98) = (   0.4285687  -0.1426919  -0.0621243), wk =   0.0204082

     Dense  grid:   357457 G-vectors     FFT dimensions: (  72,  72, 144)

     Smooth grid:   126377 G-vectors     FFT dimensions: (  50,  50, 100)

     Estimated max dynamical RAM per process >       5.94 GB

     Initial potential from superposition of free atoms

     starting charge     182.9976, renormalised to     183.0000
     Starting wfcs are  101 randomized atomic wfcs +    9 random wfcs

     total cpu time spent up to now is      338.0 secs

     Self-consistent Calculation

     iteration #  1     ecut=   110.00 Ry     beta= 0.30
     Davidson diagonalization with overlap
     ethr =  1.00E-02,  avg # of iterations =  3.0

     total cpu time spent up to now is     1647.6 secs

     total energy              =   -4254.51216208 Ry
     estimated scf accuracy    <       2.87265545 Ry

     iteration #  2     ecut=   110.00 Ry     beta= 0.30
     Davidson diagonalization with overlap
     ethr =  1.57E-03,  avg # of iterations =  2.8

     total cpu time spent up to now is     2989.4 secs

     total energy              =   -4254.35271512 Ry
     estimated scf accuracy    <      27.14847110 Ry

     iteration #  3     ecut=   110.00 Ry     beta= 0.30
     Davidson diagonalization with overlap
     ethr =  1.57E-03,  avg # of iterations =  2.6

     total cpu time spent up to now is     4269.8 secs

     total energy              =   -4255.56107268 Ry
     estimated scf accuracy    <       3.47095868 Ry

     iteration #  4     ecut=   110.00 Ry     beta= 0.30
     Davidson diagonalization with overlap
     ethr =  1.57E-03,  avg # of iterations =  1.1

     total cpu time spent up to now is     5243.3 secs

     total energy              =   -4255.73784496 Ry
     estimated scf accuracy    <       0.29090608 Ry

     iteration #  5     ecut=   110.00 Ry     beta= 0.30
     Davidson diagonalization with overlap
     ethr =  1.59E-04,  avg # of iterations =  2.2

     total cpu time spent up to now is     6523.7 secs

     total energy              =   -4255.73788964 Ry
     estimated scf accuracy    <       0.08328667 Ry

     iteration #  6     ecut=   110.00 Ry     beta= 0.30
     Davidson diagonalization with overlap
     ethr =  4.55E-05,  avg # of iterations =  2.7

     total cpu time spent up to now is     7563.2 secs

     total energy              =   -4255.74173011 Ry
     estimated scf accuracy    <       0.01911307 Ry

     iteration #  7     ecut=   110.00 Ry     beta= 0.30
     Davidson diagonalization with overlap
     c_bands:  1 eigenvalues not converged
     c_bands:  1 eigenvalues not converged
     ethr =  1.04E-05,  avg # of iterations =  4.9

     total cpu time spent up to now is     8660.8 secs

     total energy              =   -4255.74194586 Ry
     estimated scf accuracy    <       0.04028217 Ry

     iteration #  8     ecut=   110.00 Ry     beta= 0.30
     Davidson diagonalization with overlap
     ethr =  1.04E-05,  avg # of iterations =  1.4

     total cpu time spent up to now is     9622.3 secs

     total energy              =   -4255.74272187 Ry
     estimated scf accuracy    <       0.00411721 Ry

     iteration #  9     ecut=   110.00 Ry     beta= 0.30
     Davidson diagonalization with overlap
     ethr =  2.25E-06,  avg # of iterations =  4.4

     total cpu time spent up to now is    10934.2 secs

     total energy              =   -4255.74264189 Ry
     estimated scf accuracy    <       0.00442167 Ry

     iteration # 10     ecut=   110.00 Ry     beta= 0.30
     Davidson diagonalization with overlap
     ethr =  2.25E-06,  avg # of iterations =  1.6

     total cpu time spent up to now is    12062.3 secs

     total energy              =   -4255.74298602 Ry
     estimated scf accuracy    <       0.00532140 Ry

     iteration # 11     ecut=   110.00 Ry     beta= 0.30
     Davidson diagonalization with overlap
     ethr =  2.25E-06,  avg # of iterations =  1.0

     total cpu time spent up to now is    12970.1 secs

     total energy              =   -4255.74336593 Ry
     estimated scf accuracy    <       0.00010585 Ry

     iteration # 12     ecut=   110.00 Ry     beta= 0.30
     Davidson diagonalization with overlap
     ethr =  5.78E-08,  avg # of iterations =  1.1

     total cpu time spent up to now is    13925.1 secs

     total energy              =   -4255.74337589 Ry
     estimated scf accuracy    <       0.00001691 Ry

     iteration # 13     ecut=   110.00 Ry     beta= 0.30
     Davidson diagonalization with overlap
     ethr =  9.24E-09,  avg # of iterations =  1.0

     total cpu time spent up to now is    14840.4 secs

     total energy              =   -4255.74337675 Ry
     estimated scf accuracy    <       0.00000521 Ry

     iteration # 14     ecut=   110.00 Ry     beta= 0.30
     Davidson diagonalization with overlap
     ethr =  2.85E-09,  avg # of iterations =  1.1

     total cpu time spent up to now is    15847.7 secs

     total energy              =   -4255.74337722 Ry
     estimated scf accuracy    <       0.00000152 Ry

     iteration # 15     ecut=   110.00 Ry     beta= 0.30
     Davidson diagonalization with overlap
     ethr =  8.33E-10,  avg # of iterations =  1.0

     total cpu time spent up to now is    16763.7 secs

     total energy              =   -4255.74337731 Ry
     estimated scf accuracy    <       0.00000095 Ry

     iteration # 16     ecut=   110.00 Ry     beta= 0.30
     Davidson diagonalization with overlap
     ethr =  5.21E-10,  avg # of iterations =  1.0

     total cpu time spent up to now is    17676.1 secs

     total energy              =   -4255.74337739 Ry
     estimated scf accuracy    <       0.00000011 Ry

     iteration # 17     ecut=   110.00 Ry     beta= 0.30
     Davidson diagonalization with overlap
     ethr =  6.05E-11,  avg # of iterations =  2.0

     total cpu time spent up to now is    18788.4 secs

     total energy              =   -4255.74337736 Ry
     estimated scf accuracy    <       0.00000122 Ry

     iteration # 18     ecut=   110.00 Ry     beta= 0.30
     Davidson diagonalization with overlap
     ethr =  6.05E-11,  avg # of iterations =  1.1

     total cpu time spent up to now is    19610.2 secs

     total energy              =   -4255.74337741 Ry
     estimated scf accuracy    <       0.00000002 Ry

     iteration # 19     ecut=   110.00 Ry     beta= 0.30
     Davidson diagonalization with overlap
     ethr =  1.36E-11,  avg # of iterations =  1.0

     total cpu time spent up to now is    20387.0 secs

     End of self-consistent calculation

          k = 0.0000 0.0000 0.0621 ( 15818 PWs)   bands (ev):

   -75.9547 -75.8903 -75.8155 -61.8537 -61.8534 -55.8604 -55.8460 -55.8197
   -44.3701 -44.3556 -44.3554 -44.3524 -44.3429 -44.3410 -44.3410 -44.2991
   -44.2884 -44.2882 -44.2753 -44.2703 -44.2691 -44.2690 -44.2215 -44.2134
   -44.2133 -44.1970 -44.1920 -44.1918 -44.1918 -30.0985 -30.0982 -30.0656
   -30.0634 -30.0633 -29.9942 -29.9013 -29.8599 -29.8596 -27.5798 -27.5794
   -27.5722 -27.5722 -27.5611 -27.5557 -23.8095 -23.7502 -23.7502 -23.7430
   -23.6864 -23.6859 -23.6129 -23.6091 -23.6087  14.1703  15.9599  16.4695
    16.6559  16.8301  16.8898  16.9746  16.9752  17.3519  17.4928  17.6925
    18.0352  18.3749  18.3792  18.5050  19.2971  19.2992  19.5001  19.6760
    19.6852  20.2354  20.6899  20.6935  20.6959  21.0379  21.2800  21.3425
    21.3437  21.4792  21.6683  21.9132  22.2031  22.7169  22.8392  22.9246
    22.9508  22.9588  23.0958  23.1066  23.1655  23.1759  23.3586  23.4635
    25.0631  25.6665  25.6916  30.3803  30.4035  30.6754  32.0356  32.2549
    32.2788  32.6398  33.5852  33.9106  33.9227  35.0129

          k = 0.0000 0.0001 0.1864 ( 15846 PWs)   bands (ev):

   -75.9547 -75.8903 -75.8155 -61.8537 -61.8534 -55.8605 -55.8460 -55.8198
   -44.3701 -44.3556 -44.3554 -44.3524 -44.3429 -44.3410 -44.3410 -44.2991
   -44.2884 -44.2882 -44.2753 -44.2703 -44.2691 -44.2690 -44.2215 -44.2134
   -44.2133 -44.1970 -44.1920 -44.1918 -44.1918 -30.0985 -30.0981 -30.0655
   -30.0635 -30.0633 -29.9942 -29.9013 -29.8599 -29.8596 -27.5798 -27.5793
   -27.5723 -27.5722 -27.5603 -27.5565 -23.8106 -23.7502 -23.7502 -23.7411
   -23.6863 -23.6858 -23.6137 -23.6092 -23.6088  14.4623  15.3964  16.6677
    16.8153  16.9998  17.0609  17.1724  17.1919  17.2059  17.2073  17.4174
    17.5895  17.7074  17.7098  18.8685  19.2988  19.7291  19.7398  20.1322
    20.1408  20.5196  20.5256  20.6165  21.0177  21.5003  21.6648  21.6720
    21.6838  21.7278  21.8810  21.9841  22.1704  22.1756  22.3313  22.4292
    22.6621  22.7470  22.7642  22.7720  23.0981  23.1038  23.3586  23.4634
    23.6201  27.0759  27.0988  28.7629  28.7858  30.7607  32.1792  32.8882
    33.4448  33.4916  33.5168  34.0547  34.5436  34.5708

          k = 0.0000 0.1427 0.0621 ( 15843 PWs)   bands (ev):

   -75.9547 -75.8899 -75.8158 -61.8537 -61.8534 -55.8595 -55.8460 -55.8206
   -44.3701 -44.3556 -44.3554 -44.3524 -44.3429 -44.3410 -44.3410 -44.2991
   -44.2884 -44.2882 -44.2753 -44.2703 -44.2691 -44.2690 -44.2215 -44.2134
   -44.2133 -44.1970 -44.1920 -44.1918 -44.1918 -30.0883 -30.0874 -30.0656
   -30.0636 -30.0631 -29.9928 -29.9029 -29.8714 -29.8710 -27.5794 -27.5792
   -27.5723 -27.5718 -27.5606 -27.5558 -23.8097 -23.7687 -23.7508 -23.7280
   -23.6875 -23.6872 -23.6223 -23.6094 -23.5983  14.4304  16.1647  16.6264
    16.8165  16.9678  17.0499  17.0775  17.1364  17.5164  17.6427  17.8074
    18.1043  18.4095  18.4345  18.5701  19.1137  19.2456  19.5018  19.6829
    19.7300  19.9043  20.0779  20.6792  20.9514  21.0413  21.2849  21.3334
    21.3729  21.5854  21.7063  22.0712  22.0900  22.1468  22.3706  22.5454
    22.6421  22.7942  22.8505  22.8721  22.9191  23.0312  23.1600  23.2444
    24.5709  26.2212  26.7587  28.3882  29.9508  30.9632  31.9894  32.4379
    32.7513  33.2402  33.4697  34.1762  34.8122  35.0584

          k = 0.0000 0.1428 0.1864 ( 15818 PWs)   bands (ev):

   -75.9547 -75.8899 -75.8158 -61.8537 -61.8534 -55.8596 -55.8460 -55.8206
   -44.3701 -44.3556 -44.3554 -44.3524 -44.3429 -44.3410 -44.3410 -44.2991
   -44.2884 -44.2882 -44.2753 -44.2703 -44.2691 -44.2690 -44.2215 -44.2134
   -44.2133 -44.1970 -44.1920 -44.1918 -44.1918 -30.0883 -30.0873 -30.0656
   -30.0637 -30.0631 -29.9928 -29.9029 -29.8714 -29.8710 -27.5793 -27.5792
   -27.5722 -27.5718 -27.5600 -27.5565 -23.8107 -23.7680 -23.7508 -23.7272
   -23.6874 -23.6871 -23.6229 -23.6095 -23.5984  14.7109  15.6122  16.8130
    16.9826  17.1513  17.1521  17.2677  17.3008  17.3216  17.4574  17.5511
    17.6263  17.7816  17.9383  18.9003  19.2552  19.7484  19.7623  19.9990
    20.1257  20.1935  20.4184  20.6843  20.7843  21.0330  21.2920  21.4067
    21.4648  21.5738  21.7160  21.7684  21.9683  22.0756  22.1184  22.3784
    22.5384  22.5943  22.7031  22.8780  22.9041  23.0337  23.1472  23.4829
    24.8592  25.9013  27.3296  27.8607  29.3948  30.5772  31.6471  32.8271
    33.3819  33.5429  34.0211  34.2024  34.7413  35.0849

          k =-0.0000 0.1426-0.1864 ( 15816 PWs)   bands (ev):

   -75.9547 -75.8899 -75.8158 -61.8537 -61.8534 -55.8596 -55.8460 -55.8206
   -44.3701 -44.3556 -44.3554 -44.3524 -44.3429 -44.3410 -44.3410 -44.2991
   -44.2884 -44.2882 -44.2753 -44.2703 -44.2691 -44.2690 -44.2215 -44.2134
   -44.2133 -44.1970 -44.1920 -44.1918 -44.1918 -30.0883 -30.0873 -30.0656
   -30.0637 -30.0631 -29.9928 -29.9029 -29.8714 -29.8710 -27.5793 -27.5792
   -27.5722 -27.5718 -27.5599 -27.5565 -23.8107 -23.7680 -23.7508 -23.7272
   -23.6874 -23.6871 -23.6229 -23.6095 -23.5984  14.7104  15.6129  16.8124
    16.9824  17.1501  17.1518  17.2685  17.3004  17.3217  17.4576  17.5515
    17.6273  17.7822  17.9390  18.9015  19.2521  19.7522  19.7600  20.0025
    20.1232  20.1925  20.4173  20.6827  20.7825  21.0338  21.2920  21.4082
    21.4660  21.5740  21.7145  21.7666  21.9688  22.0763  22.1192  22.3796
    22.5392  22.5947  22.7026  22.8783  22.9040  23.0335  23.1471  23.4798
    24.8625  25.9051  27.3235  27.8592  29.3966  30.5855  31.6423  32.8263
    33.3775  33.5426  34.0199  34.2032  34.7430  35.0857

          k =-0.0000 0.1426-0.0621 ( 15840 PWs)   bands (ev):

   -75.9547 -75.8899 -75.8158 -61.8537 -61.8534 -55.8595 -55.8460 -55.8206
   -44.3701 -44.3556 -44.3554 -44.3524 -44.3429 -44.3410 -44.3410 -44.2991
   -44.2884 -44.2882 -44.2753 -44.2703 -44.2691 -44.2690 -44.2215 -44.2134
   -44.2133 -44.1970 -44.1920 -44.1918 -44.1918 -30.0884 -30.0874 -30.0656
   -30.0636 -30.0631 -29.9928 -29.9029 -29.8714 -29.8710 -27.5794 -27.5792
   -27.5723 -27.5718 -27.5606 -27.5558 -23.8097 -23.7688 -23.7508 -23.7280
   -23.6875 -23.6872 -23.6223 -23.6094 -23.5983  14.4301  16.1653  16.6262
    16.8164  16.9673  17.0497  17.0773  17.1365  17.5165  17.6431  17.8077
    18.1051  18.4104  18.4360  18.5703  19.1117  19.2447  19.4982  19.6867
    19.7290  19.9054  20.0774  20.6775  20.9507  21.0413  21.2848  21.3345
    21.3728  21.5860  21.7063  22.0708  22.0887  22.1476  22.3694  22.5461
    22.6429  22.7939  22.8504  22.8730  22.9191  23.0313  23.1599  23.2443
    24.5725  26.2230  26.7580  28.3825  29.9580  30.9649  31.9886  32.4377
    32.7498  33.2399  33.4677  34.1646  34.8128  35.0582

          k = 0.0000 0.2854 0.0621 ( 15815 PWs)   bands (ev):

   -75.9547 -75.8892 -75.8166 -61.8536 -61.8534 -55.8574 -55.8461 -55.8227
   -44.3701 -44.3556 -44.3554 -44.3524 -44.3429 -44.3410 -44.3410 -44.2991
   -44.2884 -44.2882 -44.2753 -44.2703 -44.2691 -44.2690 -44.2215 -44.2134
   -44.2133 -44.1970 -44.1920 -44.1918 -44.1918 -30.0660 -30.0644 -30.0627
   -30.0599 -30.0573 -29.9896 -29.9066 -29.9033 -29.9013 -27.5788 -27.5783
   -27.5723 -27.5708 -27.5596 -27.5561 -23.8101 -23.7886 -23.7521 -23.7166
   -23.6913 -23.6890 -23.6292 -23.6110 -23.5878  15.1658  16.6899  17.0064
    17.2198  17.3695  17.3721  17.5246  17.5911  17.8761  18.0228  18.1273
    18.2872  18.4870  18.6433  18.6961  18.7755  18.9867  19.3300  19.3321
    19.6325  20.0076  20.0808  20.6156  20.6521  20.7235  20.8327  20.8454
    21.1206  21.2155  21.3065  21.3287  21.6170  21.7590  21.9709  22.0800
    22.1645  22.2785  22.3665  22.4465  22.6645  23.0840  23.1238  23.2320
    23.7255  26.3617  27.8434  28.0927  28.6133  31.7116  32.3171  32.3846
    33.2622  33.5555  33.8612  33.8687  34.0681  34.8240

          k = 0.0000 0.2854 0.1864 ( 15780 PWs)   bands (ev):

   -75.9547 -75.8892 -75.8166 -61.8536 -61.8534 -55.8574 -55.8460 -55.8227
   -44.3701 -44.3556 -44.3554 -44.3524 -44.3429 -44.3410 -44.3410 -44.2991
   -44.2884 -44.2882 -44.2753 -44.2703 -44.2691 -44.2690 -44.2215 -44.2134
   -44.2133 -44.1970 -44.1920 -44.1918 -44.1918 -30.0659 -30.0644 -30.0625
   -30.0599 -30.0575 -29.9896 -29.9066 -29.9033 -29.9013 -27.5789 -27.5783
   -27.5722 -27.5708 -27.5591 -27.5566 -23.8107 -23.7880 -23.7521 -23.7167
   -23.6912 -23.6890 -23.6296 -23.6110 -23.5876  15.4150  16.2052  17.1870
    17.3488  17.4990  17.5220  17.5619  17.6055  17.7816  17.8823  17.9274
    17.9928  17.9940  18.3724  18.8745  19.0059  19.3647  19.6149  19.8453
    19.8805  20.0402  20.1453  20.1951  20.2015  20.5634  20.5856  20.6644
    20.8464  21.4049  21.5631  21.6543  21.9016  21.9703  21.9858  22.0436
    22.1346  22.1751  22.3023  22.3580  22.3931  22.8019  22.9084  24.1399
    24.8789  25.3787  26.4698  28.8984  29.4750  30.3710  30.8214  32.9931
    33.2504  33.7547  34.5569  34.6538  35.0377  35.3393

          k =-0.0000 0.2852-0.1864 ( 15783 PWs)   bands (ev):

   -75.9547 -75.8892 -75.8166 -61.8536 -61.8534 -55.8574 -55.8460 -55.8227
   -44.3701 -44.3556 -44.3554 -44.3524 -44.3429 -44.3410 -44.3410 -44.2991
   -44.2884 -44.2882 -44.2753 -44.2703 -44.2691 -44.2690 -44.2215 -44.2134
   -44.2133 -44.1970 -44.1920 -44.1918 -44.1918 -30.0659 -30.0644 -30.0625
   -30.0599 -30.0575 -29.9896 -29.9066 -29.9033 -29.9013 -27.5789 -27.5783
   -27.5722 -27.5708 -27.5590 -27.5566 -23.8106 -23.7880 -23.7521 -23.7166
   -23.6912 -23.6890 -23.6296 -23.6110 -23.5876  15.4141  16.2066  17.1864
    17.3475  17.5002  17.5229  17.5613  17.6051  17.7815  17.8828  17.9282
    17.9935  17.9937  18.3740  18.8756  19.0042  19.3616  19.6118  19.8448
    19.8851  20.0380  20.1456  20.1950  20.2007  20.5653  20.5861  20.6620
    20.8473  21.4025  21.5651  21.6555  21.9024  21.9713  21.9869  22.0443
    22.1344  22.1753  22.3024  22.3573  22.3927  22.8016  22.9083  24.1439
    24.8730  25.3725  26.4756  28.9095  29.4728  30.3602  30.8245  32.9927
    33.2498  33.7550  34.5544  34.6555  35.0351  35.3364

          k =-0.0000 0.2853-0.0621 ( 15812 PWs)   bands (ev):

   -75.9547 -75.8892 -75.8166 -61.8536 -61.8534 -55.8574 -55.8461 -55.8227
   -44.3701 -44.3556 -44.3554 -44.3524 -44.3429 -44.3410 -44.3410 -44.2991
   -44.2884 -44.2882 -44.2753 -44.2703 -44.2691 -44.2690 -44.2215 -44.2134
   -44.2133 -44.1970 -44.1920 -44.1918 -44.1918 -30.0660 -30.0644 -30.0627
   -30.0599 -30.0573 -29.9896 -29.9066 -29.9033 -29.9013 -27.5788 -27.5783
   -27.5723 -27.5708 -27.5595 -27.5561 -23.8101 -23.7887 -23.7521 -23.7166
   -23.6914 -23.6890 -23.6292 -23.6110 -23.5878  15.1654  16.6910  17.0064
    17.2195  17.3692  17.3716  17.5243  17.5910  17.8771  18.0239  18.1279
    18.2882  18.4881  18.6410  18.6964  18.7756  18.9862  19.3278  19.3287
    19.6363  20.0092  20.0787  20.6147  20.6524  20.7226  20.8316  20.8443
    21.1193  21.2169  21.3078  21.3307  21.6172  21.7596  21.9714  22.0809
    22.1646  22.2785  22.3662  22.4463  22.6659  23.0859  23.1237  23.2320
    23.7213  26.3554  27.8505  28.0973  28.6124  31.7060  32.3203  32.3826
    33.2588  33.5543  33.8604  33.8675  34.0663  34.8231

          k = 0.0000 0.4280 0.0621 ( 15790 PWs)   bands (ev):

   -75.9546 -75.8886 -75.8172 -61.8536 -61.8533 -55.8554 -55.8461 -55.8246
   -44.3701 -44.3556 -44.3554 -44.3524 -44.3429 -44.3410 -44.3410 -44.2990
   -44.2883 -44.2882 -44.2753 -44.2703 -44.2691 -44.2690 -44.2215 -44.2134
   -44.2133 -44.1970 -44.1920 -44.1918 -44.1918 -30.0661 -30.0649 -30.0619
   -30.0234 -30.0199 -29.9868 -29.9429 -29.9394 -29.9097 -27.5785 -27.5775
   -27.5723 -27.5700 -27.5585 -27.5566 -23.8088 -23.8023 -23.7531 -23.7115
   -23.6949 -23.6904 -23.6317 -23.6122 -23.5818  16.1728  16.9496  17.4638
    17.6559  17.8015  17.8565  18.0474  18.1553  18.2591  18.2724  18.3626
    18.4919  18.5607  18.6344  18.7072  18.8578  19.0609  19.0969  19.1880
    19.4049  19.4674  19.5380  20.2000  20.4030  20.4758  20.5627  20.6887
    20.7166  20.8299  20.8984  21.0312  21.2978  21.3773  21.4741  21.5392
    21.6253  21.6487  21.7709  21.9712  22.3025  23.1215  23.2314  23.7955
    24.8362  24.9862  26.2356  29.7885  30.5614  31.0731  32.1411  32.4139
    32.6650  33.7465  34.0269  34.5528  34.7214  34.8365

          k = 0.0000 0.4281 0.1864 ( 15814 PWs)   bands (ev):

   -75.9546 -75.8886 -75.8172 -61.8536 -61.8533 -55.8554 -55.8461 -55.8246
   -44.3701 -44.3556 -44.3554 -44.3524 -44.3429 -44.3410 -44.3410 -44.2990
   -44.2883 -44.2882 -44.2753 -44.2703 -44.2691 -44.2690 -44.2215 -44.2134
   -44.2133 -44.1970 -44.1920 -44.1918 -44.1918 -30.0661 -30.0649 -30.0618
   -30.0235 -30.0200 -29.9868 -29.9429 -29.9394 -29.9097 -27.5787 -27.5775
   -27.5721 -27.5700 -27.5582 -27.5569 -23.8089 -23.8018 -23.7531 -23.7122
   -23.6946 -23.6904 -23.6319 -23.6122 -23.5815  16.4017  16.9273  17.2912
    17.7904  17.8837  17.9514  17.9750  18.0778  18.2121  18.3004  18.3487
    18.4938  18.5158  18.5405  18.6423  18.7944  18.7946  19.0638  19.2541
    19.2552  19.4470  19.5732  19.8754  19.9476  20.5358  20.6570  20.7045
    20.8345  20.9316  21.0928  21.2736  21.3880  21.5141  21.5673  21.6155
    21.7188  21.9792  22.1070  22.2356  22.6933  22.7582  22.8816  23.1885
    23.9619  26.1865  27.4320  27.9263  29.1803  31.3131  32.5234  32.8966
    33.0460  33.1763  33.4352  34.0580  34.3610  35.7909

          k =-0.0000 0.4279-0.1864 ( 15821 PWs)   bands (ev):

   -75.9546 -75.8886 -75.8172 -61.8536 -61.8533 -55.8554 -55.8461 -55.8246
   -44.3701 -44.3556 -44.3554 -44.3524 -44.3429 -44.3410 -44.3410 -44.2990
   -44.2883 -44.2882 -44.2753 -44.2703 -44.2691 -44.2690 -44.2215 -44.2134
   -44.2133 -44.1970 -44.1920 -44.1918 -44.1918 -30.0661 -30.0649 -30.0618
   -30.0235 -30.0200 -29.9868 -29.9429 -29.9394 -29.9097 -27.5787 -27.5775
   -27.5721 -27.5700 -27.5581 -27.5569 -23.8088 -23.8019 -23.7531 -23.7122
   -23.6946 -23.6904 -23.6319 -23.6122 -23.5815  16.4007  16.9290  17.2916
    17.7888  17.8850  17.9508  17.9752  18.0787  18.2128  18.3002  18.3475
    18.4931  18.5160  18.5409  18.6401  18.7944  18.7947  19.0651  19.2528
    19.2531  19.4478  19.5770  19.8754  19.9473  20.5366  20.6540  20.7031
    20.8340  20.9320  21.0937  21.2745  21.3883  21.5150  21.5676  21.6158
    21.7180  21.9800  22.1064  22.2360  22.6954  22.7581  22.8815  23.1907
    23.9569  26.1780  27.4420  27.9351  29.1701  31.3106  32.5271  32.8969
    33.0454  33.1787  33.4354  34.0568  34.3572  35.7858

          k =-0.0000 0.4280-0.0621 ( 15782 PWs)   bands (ev):

   -75.9546 -75.8886 -75.8172 -61.8536 -61.8533 -55.8554 -55.8461 -55.8246
   -44.3701 -44.3556 -44.3554 -44.3524 -44.3429 -44.3410 -44.3410 -44.2990
   -44.2883 -44.2882 -44.2753 -44.2703 -44.2691 -44.2690 -44.2215 -44.2134
   -44.2133 -44.1970 -44.1920 -44.1918 -44.1918 -30.0661 -30.0649 -30.0619
   -30.0234 -30.0199 -29.9868 -29.9429 -29.9394 -29.9097 -27.5785 -27.5775
   -27.5723 -27.5700 -27.5584 -27.5566 -23.8087 -23.8023 -23.7531 -23.7115
   -23.6949 -23.6904 -23.6317 -23.6122 -23.5818  16.1724  16.9499  17.4656
    17.6560  17.8013  17.8563  18.0468  18.1564  18.2576  18.2721  18.3628
    18.4902  18.5614  18.6349  18.7068  18.8580  19.0589  19.0953  19.1886
    19.4060  19.4680  19.5414  20.1984  20.4005  20.4750  20.5634  20.6869
    20.7181  20.8314  20.8960  21.0323  21.2990  21.3781  21.4749  21.5392
    21.6255  21.6494  21.7698  21.9719  22.3025  23.1215  23.2314  23.7999
    24.8299  24.9792  26.2440  29.7952  30.5605  31.0641  32.1378  32.4147
    32.6677  33.7478  34.0315  34.5509  34.7205  34.8337

          k = 0.1429 0.0000 0.0621 ( 15840 PWs)   bands (ev):

   -75.9547 -75.8899 -75.8158 -61.8537 -61.8534 -55.8596 -55.8460 -55.8206
   -44.3701 -44.3556 -44.3554 -44.3524 -44.3429 -44.3410 -44.3410 -44.2991
   -44.2884 -44.2882 -44.2753 -44.2703 -44.2691 -44.2690 -44.2215 -44.2134
   -44.2133 -44.1970 -44.1920 -44.1918 -44.1918 -30.0880 -30.0877 -30.0656
   -30.0638 -30.0630 -29.9928 -29.9029 -29.8717 -29.8707 -27.5797 -27.5789
   -27.5723 -27.5718 -27.5606 -27.5558 -23.8097 -23.7687 -23.7508 -23.7281
   -23.6880 -23.6867 -23.6221 -23.6098 -23.5981  14.4309  16.1656  16.6272
    16.8172  16.9680  17.0494  17.0773  17.1372  17.5171  17.6433  17.8068
    18.1053  18.4059  18.4384  18.5691  19.1157  19.2460  19.5025  19.6868
    19.7186  19.9001  20.0740  20.6844  20.9534  21.0452  21.2857  21.3355
    21.3753  21.5856  21.7043  22.0727  22.0924  22.1430  22.3719  22.5473
    22.6444  22.7984  22.8507  22.8722  22.9155  23.0275  23.1546  23.2374
    24.5923  26.2271  26.7399  28.4050  29.9740  30.9417  31.9763  32.4295
    32.7276  33.2132  33.4595  34.1846  34.8285  35.0611

          k = 0.1429 0.0001 0.1864 ( 15822 PWs)   bands (ev):

   -75.9547 -75.8899 -75.8158 -61.8537 -61.8534 -55.8596 -55.8459 -55.8207
   -44.3701 -44.3556 -44.3554 -44.3524 -44.3429 -44.3410 -44.3410 -44.2991
   -44.2884 -44.2882 -44.2753 -44.2703 -44.2691 -44.2690 -44.2215 -44.2134
   -44.2133 -44.1970 -44.1920 -44.1918 -44.1918 -30.0880 -30.0876 -30.0656
   -30.0638 -30.0630 -29.9928 -29.9029 -29.8717 -29.8707 -27.5797 -27.5789
   -27.5722 -27.5718 -27.5600 -27.5565 -23.8107 -23.7680 -23.7508 -23.7274
   -23.6879 -23.6866 -23.6226 -23.6099 -23.5982  14.7113  15.6130  16.8133
    16.9831  17.1511  17.1515  17.2683  17.2997  17.3225  17.4589  17.5507
    17.6274  17.7797  17.9412  18.9003  19.2559  19.7527  19.7577  19.9928
    20.1324  20.1934  20.4116  20.6850  20.7865  21.0380  21.2972  21.3992
    21.4632  21.5771  21.7136  21.7692  21.9684  22.0728  22.1194  22.3784
    22.5396  22.5941  22.6978  22.8767  22.9012  23.0333  23.1463  23.4876
    24.8670  25.9220  27.3466  27.8400  29.3742  30.5918  31.6499  32.8252
    33.3754  33.5211  33.9964  34.1920  34.7392  35.0596

          k = 0.1428-0.0001-0.1864 ( 15822 PWs)   bands (ev):

   -75.9547 -75.8899 -75.8158 -61.8537 -61.8534 -55.8596 -55.8459 -55.8207
   -44.3701 -44.3556 -44.3554 -44.3524 -44.3429 -44.3410 -44.3410 -44.2991
   -44.2884 -44.2882 -44.2753 -44.2703 -44.2691 -44.2690 -44.2215 -44.2134
   -44.2133 -44.1970 -44.1920 -44.1918 -44.1918 -30.0880 -30.0876 -30.0656
   -30.0638 -30.0630 -29.9928 -29.9029 -29.8717 -29.8707 -27.5797 -27.5789
   -27.5722 -27.5718 -27.5599 -27.5565 -23.8107 -23.7680 -23.7508 -23.7274
   -23.6879 -23.6866 -23.6226 -23.6099 -23.5982  14.7113  15.6131  16.8132
    16.9830  17.1510  17.1515  17.2684  17.2996  17.3225  17.4590  17.5507
    17.6274  17.7798  17.9413  18.9005  19.2555  19.7524  19.7580  19.9933
    20.1323  20.1933  20.4115  20.6848  20.7862  21.0381  21.2971  21.3993
    21.4632  21.5771  21.7137  21.7691  21.9684  22.0729  22.1193  22.3785
    22.5397  22.5942  22.6977  22.8767  22.9013  23.0334  23.1463  23.4873
    24.8673  25.9224  27.3459  27.8399  29.3743  30.5926  31.6495  32.8251
    33.3749  33.5211  33.9963  34.1921  34.7394  35.0597

          k = 0.1429-0.0000-0.0621 ( 15838 PWs)   bands (ev):

   -75.9547 -75.8899 -75.8158 -61.8537 -61.8534 -55.8596 -55.8460 -55.8206
   -44.3701 -44.3556 -44.3554 -44.3524 -44.3429 -44.3410 -44.3410 -44.2991
   -44.2884 -44.2882 -44.2753 -44.2703 -44.2691 -44.2690 -44.2215 -44.2134
   -44.2133 -44.1970 -44.1920 -44.1918 -44.1918 -30.0880 -30.0877 -30.0656
   -30.0638 -30.0630 -29.9928 -29.9029 -29.8717 -29.8707 -27.5797 -27.5789
   -27.5723 -27.5718 -27.5606 -27.5558 -23.8097 -23.7687 -23.7508 -23.7281
   -23.6880 -23.6867 -23.6220 -23.6098 -23.5981  14.4309  16.1656  16.6271
    16.8172  16.9680  17.0494  17.0773  17.1373  17.5171  17.6433  17.8068
    18.1054  18.4059  18.4385  18.5692  19.1154  19.2458  19.5022  19.6871
    19.7185  19.9003  20.0739  20.6843  20.9532  21.0453  21.2858  21.3356
    21.3753  21.5856  21.7042  22.0729  22.0919  22.1431  22.3721  22.5473
    22.6444  22.7983  22.8507  22.8722  22.9155  23.0275  23.1546  23.2374
    24.5924  26.2273  26.7398  28.4044  29.9747  30.9419  31.9763  32.4295
    32.7274  33.2132  33.4594  34.1835  34.8285  35.0616

          k = 0.1429 0.1427 0.0621 ( 15819 PWs)   bands (ev):

   -75.9547 -75.8897 -75.8161 -61.8537 -61.8534 -55.8586 -55.8460 -55.8216
   -44.3701 -44.3556 -44.3554 -44.3524 -44.3429 -44.3410 -44.3410 -44.2991
   -44.2884 -44.2882 -44.2753 -44.2703 -44.2691 -44.2690 -44.2215 -44.2134
   -44.2133 -44.1970 -44.1920 -44.1918 -44.1918 -30.1034 -30.0657 -30.0642
   -30.0630 -30.0541 -29.9917 -29.9063 -29.9041 -29.8558 -27.5798 -27.5788
   -27.5722 -27.5716 -27.5602 -27.5559 -23.8098 -23.7743 -23.7580 -23.7182
   -23.6888 -23.6876 -23.6245 -23.6137 -23.5912  14.6751  16.2947  16.7882
    16.9345  17.0710  17.2023  17.2449  17.2825  17.5304  17.7692  18.0209
    18.1276  18.2212  18.5338  18.7095  19.1041  19.2957  19.5280  19.6785
    19.7704  19.8148  19.9075  20.4135  20.8655  21.0081  21.1266  21.2854
    21.4131  21.5957  21.6361  21.7173  21.8578  22.0526  22.2049  22.2601
    22.3775  22.6305  22.7010  22.7572  22.8412  22.9876  23.0876  23.1165
    25.6149  25.6300  27.0199  28.7047  29.0219  29.8668  30.7881  32.2400
    33.2173  33.9261  34.2213  34.7011  35.0034  35.3553

          k = 0.1429 0.1428 0.1864 ( 15837 PWs)   bands (ev):

   -75.9547 -75.8897 -75.8161 -61.8537 -61.8534 -55.8586 -55.8460 -55.8216
   -44.3701 -44.3556 -44.3554 -44.3524 -44.3429 -44.3410 -44.3410 -44.2991
   -44.2884 -44.2882 -44.2753 -44.2703 -44.2691 -44.2690 -44.2215 -44.2134
   -44.2133 -44.1970 -44.1920 -44.1918 -44.1918 -30.1033 -30.0658 -30.0642
   -30.0630 -30.0541 -29.9917 -29.9063 -29.9042 -29.8558 -27.5796 -27.5790
   -27.5724 -27.5714 -27.5596 -27.5565 -23.8107 -23.7734 -23.7584 -23.7176
   -23.6885 -23.6877 -23.6252 -23.6134 -23.5913  14.9338  15.7883  16.9449
    17.0605  17.2076  17.2915  17.3465  17.4152  17.5261  17.5369  17.6604
    17.7958  17.9032  18.1255  18.9663  19.2409  19.7290  19.7858  19.9307
    20.0382  20.0818  20.2311  20.4232  20.9164  20.9821  21.0837  21.1962
    21.2065  21.3694  21.4144  21.5622  21.7130  21.7449  21.9066  22.0220
    22.0784  22.8144  22.8756  22.9110  22.9602  23.0722  23.1425  23.8716
    25.5216  26.4966  26.6129  27.7080  27.9111  30.7379  31.6996  32.0650
    32.8780  33.4151  34.3264  34.5986  34.8850  35.3752

          k = 0.1428 0.1426-0.1864 ( 15836 PWs)   bands (ev):

   -75.9547 -75.8897 -75.8161 -61.8537 -61.8534 -55.8586 -55.8460 -55.8216
   -44.3701 -44.3556 -44.3554 -44.3524 -44.3429 -44.3410 -44.3410 -44.2991
   -44.2884 -44.2882 -44.2753 -44.2703 -44.2691 -44.2690 -44.2215 -44.2134
   -44.2133 -44.1970 -44.1920 -44.1918 -44.1918 -30.1033 -30.0658 -30.0642
   -30.0630 -30.0541 -29.9917 -29.9063 -29.9042 -29.8558 -27.5796 -27.5790
   -27.5724 -27.5714 -27.5596 -27.5565 -23.8107 -23.7735 -23.7583 -23.7176
   -23.6885 -23.6877 -23.6252 -23.6134 -23.5913  14.9333  15.7891  16.9440
    17.0599  17.2064  17.2920  17.3471  17.4152  17.5273  17.5370  17.6608
    17.7958  17.9040  18.1259  18.9673  19.2385  19.7306  19.7838  19.9307
    20.0391  20.0820  20.2304  20.4226  20.9155  20.9819  21.0844  21.1966
    21.2068  21.3698  21.4142  21.5617  21.7120  21.7441  21.9060  22.0225
    22.0789  22.8140  22.8746  22.9116  22.9607  23.0736  23.1433  23.8704
    25.5238  26.4982  26.6132  27.7047  27.9097  30.7435  31.7046  32.0602
    32.8724  33.4179  34.3254  34.5980  34.8805  35.3761

          k = 0.1429 0.1426-0.0621 ( 15815 PWs)   bands (ev):

   -75.9547 -75.8897 -75.8161 -61.8537 -61.8534 -55.8586 -55.8460 -55.8216
   -44.3701 -44.3556 -44.3554 -44.3524 -44.3429 -44.3410 -44.3410 -44.2991
   -44.2884 -44.2882 -44.2753 -44.2703 -44.2691 -44.2690 -44.2215 -44.2134
   -44.2133 -44.1970 -44.1920 -44.1918 -44.1918 -30.1034 -30.0657 -30.0642
   -30.0630 -30.0541 -29.9917 -29.9063 -29.9041 -29.8558 -27.5798 -27.5788
   -27.5722 -27.5716 -27.5602 -27.5559 -23.8098 -23.7744 -23.7580 -23.7182
   -23.6888 -23.6876 -23.6245 -23.6137 -23.5912  14.6748  16.2953  16.7878
    16.9343  17.0704  17.2022  17.2449  17.2828  17.5308  17.7697  18.0208
    18.1289  18.2220  18.5343  18.7096  19.1030  19.2942  19.5262  19.6792
    19.7700  19.8156  19.9072  20.4159  20.8639  21.0079  21.1262  21.2856
    21.4118  21.5958  21.6362  21.7174  21.8577  22.0520  22.2041  22.2599
    22.3774  22.6306  22.7008  22.7572  22.8418  22.9885  23.0887  23.1173
    25.6157  25.6294  27.0216  28.7005  29.0202  29.8719  30.7911  32.2398
    33.2159  33.9250  34.2158  34.6970  35.0044  35.3568

          k = 0.1429 0.2854 0.0621 ( 15799 PWs)   bands (ev):

   -75.9547 -75.8890 -75.8167 -61.8536 -61.8533 -55.8563 -55.8460 -55.8238
   -44.3701 -44.3556 -44.3554 -44.3524 -44.3429 -44.3410 -44.3410 -44.2991
   -44.2884 -44.2882 -44.2753 -44.2703 -44.2691 -44.2690 -44.2215 -44.2134
   -44.2133 -44.1970 -44.1920 -44.1918 -44.1918 -30.0968 -30.0660 -30.0648
   -30.0629 -30.0168 -29.9891 -29.9457 -29.9073 -29.8641 -27.5801 -27.5781
   -27.5725 -27.5711 -27.5592 -27.5562 -23.8097 -23.7893 -23.7617 -23.7069
   -23.6913 -23.6890 -23.6293 -23.6162 -23.5820  15.3629  16.6256  17.1513
    17.2813  17.4190  17.4813  17.5590  17.6939  17.7857  17.8831  17.9558
    18.3195  18.5653  18.7294  18.9442  19.0636  19.3408  19.4397  19.6043
    19.6831  19.9521  20.0773  20.2056  20.3287  20.5382  20.6032  20.7150
    20.8214  20.9105  21.0470  21.5251  21.7254  21.7819  21.8955  21.9313
    22.2760  22.4615  22.4944  22.5244  22.8777  22.9467  23.0285  23.6392
    23.8338  26.5525  27.2516  27.8588  28.6262  29.9210  31.0886  31.5149
    32.6259  33.5636  34.2636  34.6496  35.4276  35.7859

          k = 0.1429 0.2854 0.1864 ( 15783 PWs)   bands (ev):

   -75.9546 -75.8890 -75.8167 -61.8536 -61.8533 -55.8563 -55.8460 -55.8238
   -44.3701 -44.3556 -44.3554 -44.3524 -44.3429 -44.3410 -44.3410 -44.2991
   -44.2884 -44.2882 -44.2753 -44.2703 -44.2691 -44.2690 -44.2215 -44.2134
   -44.2133 -44.1970 -44.1920 -44.1918 -44.1918 -30.0968 -30.0661 -30.0648
   -30.0629 -30.0167 -29.9891 -29.9456 -29.9073 -29.8641 -27.5796 -27.5787
   -27.5727 -27.5708 -27.5588 -27.5566 -23.8102 -23.7887 -23.7621 -23.7067
   -23.6909 -23.6892 -23.6298 -23.6159 -23.5821  15.5566  16.2597  17.2461
    17.3421  17.4486  17.4732  17.5692  17.6783  17.8515  17.9121  18.0685
    18.2205  18.3093  18.5487  19.0280  19.0537  19.4836  19.6621  19.7909
    19.8692  19.9435  20.0000  20.0935  20.1359  20.2856  20.4527  20.8794
    20.9904  21.0804  21.1395  21.3122  21.4464  21.5233  21.6260  21.7640
    22.0555  22.6180  22.6904  22.7275  22.8670  22.9636  22.9948  24.4947
    25.0314  25.5861  26.8458  27.8724  28.5859  29.4412  30.7924  31.8064
    32.5143  33.0747  33.9478  34.9635  35.2297  35.7455

          k = 0.1428 0.2852-0.1864 ( 15786 PWs)   bands (ev):

   -75.9546 -75.8890 -75.8167 -61.8536 -61.8533 -55.8563 -55.8460 -55.8238
   -44.3701 -44.3556 -44.3554 -44.3524 -44.3429 -44.3410 -44.3410 -44.2991
   -44.2884 -44.2882 -44.2753 -44.2703 -44.2691 -44.2690 -44.2215 -44.2134
   -44.2133 -44.1970 -44.1920 -44.1918 -44.1918 -30.0968 -30.0660 -30.0649
   -30.0629 -30.0167 -29.9891 -29.9456 -29.9073 -29.8641 -27.5795 -27.5788
   -27.5727 -27.5708 -27.5588 -27.5567 -23.8102 -23.7887 -23.7620 -23.7067
   -23.6909 -23.6892 -23.6298 -23.6159 -23.5821  15.5558  16.2610  17.2450
    17.3407  17.4484  17.4742  17.5703  17.6798  17.8513  17.9116  18.0680
    18.2212  18.3096  18.5496  19.0286  19.0523  19.4815  19.6598  19.7915
    19.8723  19.9425  19.9983  20.0941  20.1350  20.2864  20.4539  20.8775
    20.9909  21.0815  21.1384  21.3129  21.4468  21.5227  21.6270  21.7652
    22.0551  22.6176  22.6903  22.7277  22.8676  22.9643  22.9954  24.4969
    25.0267  25.5810  26.8509  27.8710  28.5914  29.4474  30.7823  31.8081
    32.5121  33.0706  33.9504  34.9620  35.2310  35.7415

          k = 0.1429 0.2853-0.0621 ( 15801 PWs)   bands (ev):

   -75.9547 -75.8890 -75.8167 -61.8536 -61.8533 -55.8563 -55.8460 -55.8238
   -44.3701 -44.3556 -44.3554 -44.3524 -44.3429 -44.3410 -44.3410 -44.2991
   -44.2884 -44.2882 -44.2753 -44.2703 -44.2691 -44.2690 -44.2215 -44.2134
   -44.2133 -44.1970 -44.1920 -44.1918 -44.1918 -30.0968 -30.0660 -30.0649
   -30.0629 -30.0168 -29.9891 -29.9457 -29.9073 -29.8641 -27.5800 -27.5782
   -27.5725 -27.5711 -27.5592 -27.5562 -23.8097 -23.7894 -23.7617 -23.7069
   -23.6913 -23.6890 -23.6293 -23.6162 -23.5820  15.3624  16.6266  17.1509
    17.2810  17.4181  17.4815  17.5593  17.6947  17.7855  17.8843  17.9565
    18.3192  18.5652  18.7290  18.9437  19.0641  19.3397  19.4378  19.6047
    19.6841  19.9537  20.0750  20.2053  20.3284  20.5385  20.6038  20.7134
    20.8220  20.9110  21.0477  21.5228  21.7257  21.7816  21.8959  21.9325
    22.2771  22.4629  22.4941  22.5250  22.8790  22.9471  23.0287  23.6356
    23.8336  26.5463  27.2510  27.8667  28.6300  29.9219  31.0886  31.5137
    32.6166  33.5602  34.2587  34.6509  35.4327  35.7901

          k = 0.1429 0.4280 0.0621 ( 15793 PWs)   bands (ev):

   -75.9546 -75.8885 -75.8172 -61.8536 -61.8533 -55.8541 -55.8461 -55.8259
   -44.3701 -44.3556 -44.3554 -44.3524 -44.3429 -44.3410 -44.3410 -44.2990
   -44.2884 -44.2882 -44.2753 -44.2703 -44.2691 -44.2690 -44.2215 -44.2134
   -44.2133 -44.1970 -44.1920 -44.1918 -44.1918 -30.0697 -30.0662 -30.0650
   -30.0629 -30.0293 -29.9868 -29.9341 -29.9099 -29.8934 -27.5801 -27.5774
   -27.5730 -27.5709 -27.5583 -27.5566 -23.8079 -23.8017 -23.7627 -23.7012
   -23.6939 -23.6900 -23.6318 -23.6171 -23.5766  16.3097  16.9616  17.1803
    17.5701  17.6594  17.7277  17.7796  17.9411  17.9682  18.3311  18.4012
    18.4956  18.7352  19.0328  19.0678  19.1225  19.2846  19.3914  19.4746
    19.5508  19.7472  19.8294  19.9056  20.0339  20.0882  20.3165  20.4315
    20.4853  20.5701  21.0575  21.2010  21.3194  21.4089  21.5812  21.9285
    21.9800  22.0153  22.1288  22.1423  22.6620  22.8752  22.9893  23.6797
    24.7767  24.9104  26.1600  28.7292  29.9523  30.2589  31.1443  31.6559
    32.6020  32.7960  33.5037  33.9419  34.3311  35.7806

          k = 0.1429 0.4281 0.1864 ( 15792 PWs)   bands (ev):

   -75.9546 -75.8885 -75.8172 -61.8536 -61.8533 -55.8541 -55.8461 -55.8259
   -44.3701 -44.3556 -44.3554 -44.3524 -44.3429 -44.3410 -44.3410 -44.2990
   -44.2884 -44.2882 -44.2753 -44.2703 -44.2691 -44.2690 -44.2215 -44.2134
   -44.2133 -44.1970 -44.1920 -44.1918 -44.1918 -30.0695 -30.0663 -30.0651
   -30.0629 -30.0293 -29.9868 -29.9341 -29.9099 -29.8934 -27.5796 -27.5781
   -27.5732 -27.5705 -27.5580 -27.5569 -23.8080 -23.8013 -23.7630 -23.7014
   -23.6935 -23.6901 -23.6320 -23.6169 -23.5766  16.4173  16.8219  17.1673
    17.5107  17.7987  17.8163  17.9225  17.9959  18.2207  18.2622  18.4339
    18.4976  18.6898  18.7565  18.8796  19.0307  19.2230  19.3366  19.4177
    19.4946  19.6205  19.6813  19.7564  19.8580  20.1740  20.3534  20.5233
    20.6526  20.7886  20.8281  21.0664  21.2626  21.4901  21.6588  22.1018
    22.2445  22.3438  22.4330  22.4838  22.6502  22.7516  22.8565  23.0918
    23.9055  26.2563  27.4896  28.1729  29.0675  29.5759  30.1864  30.6503
    31.6837  33.9655  35.1973  35.4058  35.6077  35.7526

          k = 0.1428 0.4279-0.1864 ( 15792 PWs)   bands (ev):

   -75.9546 -75.8885 -75.8172 -61.8536 -61.8533 -55.8541 -55.8461 -55.8259
   -44.3701 -44.3556 -44.3554 -44.3524 -44.3429 -44.3410 -44.3410 -44.2990
   -44.2884 -44.2882 -44.2753 -44.2703 -44.2691 -44.2690 -44.2215 -44.2134
   -44.2133 -44.1970 -44.1920 -44.1918 -44.1918 -30.0696 -30.0661 -30.0653
   -30.0629 -30.0293 -29.9868 -29.9341 -29.9099 -29.8934 -27.5795 -27.5782
   -27.5732 -27.5705 -27.5580 -27.5569 -23.8080 -23.8013 -23.7630 -23.7014
   -23.6935 -23.6901 -23.6320 -23.6169 -23.5766  16.4166  16.8230  17.1671
    17.5106  17.8001  17.8167  17.9220  17.9949  18.2206  18.2618  18.4336
    18.4975  18.6893  18.7566  18.8795  19.0313  19.2234  19.3351  19.4178
    19.4951  19.6228  19.6811  19.7561  19.8584  20.1721  20.3523  20.5240
    20.6512  20.7890  20.8289  21.0672  21.2626  21.4891  21.6591  22.1027
    22.2453  22.3434  22.4332  22.4841  22.6509  22.7521  22.8568  23.0936
    23.9010  26.2486  27.4990  28.1809  29.0635  29.5696  30.1878  30.6516
    31.6806  33.9607  35.1981  35.4107  35.6117  35.7535

          k = 0.1429 0.4280-0.0621 ( 15790 PWs)   bands (ev):

   -75.9546 -75.8885 -75.8172 -61.8536 -61.8533 -55.8541 -55.8461 -55.8259
   -44.3701 -44.3556 -44.3554 -44.3524 -44.3429 -44.3410 -44.3410 -44.2990
   -44.2884 -44.2882 -44.2753 -44.2703 -44.2691 -44.2690 -44.2215 -44.2134
   -44.2133 -44.1970 -44.1920 -44.1918 -44.1918 -30.0698 -30.0661 -30.0651
   -30.0629 -30.0293 -29.9868 -29.9341 -29.9099 -29.8934 -27.5801 -27.5774
   -27.5730 -27.5709 -27.5582 -27.5567 -23.8079 -23.8017 -23.7627 -23.7012
   -23.6939 -23.6900 -23.6318 -23.6171 -23.5766  16.3093  16.9624  17.1806
    17.5693  17.6589  17.7294  17.7795  17.9412  17.9678  18.3303  18.4008
    18.4954  18.7356  19.0324  19.0671  19.1213  19.2860  19.3914  19.4766
    19.5510  19.7482  19.8302  19.9053  20.0333  20.0851  20.3163  20.4340
    20.4843  20.5673  21.0588  21.2028  21.3201  21.4088  21.5795  21.9282
    21.9812  22.0167  22.1287  22.1418  22.6617  22.8754  22.9894  23.6840
    24.7705  24.9038  26.1683  28.7290  29.9536  30.2644  31.1441  31.6485
    32.5986  32.7915  33.5004  33.9473  34.3370  35.7820

          k = 0.1429-0.4280 0.0621 ( 15790 PWs)   bands (ev):

   -75.9546 -75.8885 -75.8172 -61.8536 -61.8533 -55.8541 -55.8461 -55.8259
   -44.3701 -44.3556 -44.3554 -44.3524 -44.3429 -44.3410 -44.3410 -44.2990
   -44.2884 -44.2882 -44.2753 -44.2703 -44.2691 -44.2690 -44.2215 -44.2134
   -44.2133 -44.1970 -44.1920 -44.1918 -44.1918 -30.0698 -30.0661 -30.0651
   -30.0629 -30.0293 -29.9868 -29.9341 -29.9099 -29.8934 -27.5801 -27.5774
   -27.5730 -27.5709 -27.5582 -27.5566 -23.8079 -23.8017 -23.7627 -23.7012
   -23.6939 -23.6900 -23.6318 -23.6171 -23.5766  16.3093  16.9624  17.1806
    17.5693  17.6589  17.7292  17.7795  17.9411  17.9679  18.3304  18.4007
    18.4954  18.7354  19.0324  19.0669  19.1212  19.2861  19.3917  19.4766
    19.5508  19.7485  19.8302  19.9054  20.0333  20.0851  20.3163  20.4342
    20.4845  20.5672  21.0589  21.2028  21.3202  21.4087  21.5794  21.9286
    21.9811  22.0167  22.1288  22.1418  22.6617  22.8753  22.9894  23.6841
    24.7704  24.9038  26.1682  28.7290  29.9532  30.2643  31.1447  31.6485
    32.5987  32.7915  33.5006  33.9472  34.3366  35.7820

          k = 0.1429-0.4279 0.1864 ( 15793 PWs)   bands (ev):

   -75.9546 -75.8885 -75.8172 -61.8536 -61.8533 -55.8541 -55.8461 -55.8259
   -44.3701 -44.3556 -44.3554 -44.3524 -44.3429 -44.3410 -44.3410 -44.2990
   -44.2884 -44.2882 -44.2753 -44.2703 -44.2691 -44.2690 -44.2215 -44.2134
   -44.2133 -44.1970 -44.1920 -44.1918 -44.1918 -30.0696 -30.0661 -30.0653
   -30.0629 -30.0293 -29.9868 -29.9341 -29.9099 -29.8934 -27.5796 -27.5781
   -27.5732 -27.5705 -27.5580 -27.5569 -23.8080 -23.8013 -23.7630 -23.7014
   -23.6935 -23.6901 -23.6320 -23.6169 -23.5766  16.4166  16.8230  17.1672
    17.5105  17.7999  17.8166  17.9220  17.9950  18.2206  18.2620  18.4336
    18.4973  18.6891  18.7566  18.8794  19.0312  19.2233  19.3350  19.4181
    19.4949  19.6227  19.6814  19.7563  19.8584  20.1722  20.3521  20.5242
    20.6513  20.7889  20.8290  21.0673  21.2626  21.4892  21.6591  22.1027
    22.2452  22.3437  22.4331  22.4841  22.6510  22.7518  22.8567  23.0937
    23.9010  26.2486  27.4990  28.1807  29.0636  29.5692  30.1882  30.6514
    31.6809  33.9600  35.1985  35.4101  35.6129  35.7534

          k = 0.1428-0.4281-0.1864 ( 15791 PWs)   bands (ev):

   -75.9546 -75.8885 -75.8172 -61.8536 -61.8533 -55.8541 -55.8461 -55.8259
   -44.3701 -44.3556 -44.3554 -44.3524 -44.3429 -44.3410 -44.3410 -44.2990
   -44.2884 -44.2882 -44.2753 -44.2703 -44.2691 -44.2690 -44.2215 -44.2134
   -44.2133 -44.1970 -44.1920 -44.1918 -44.1918 -30.0695 -30.0663 -30.0651
   -30.0629 -30.0293 -29.9868 -29.9341 -29.9099 -29.8934 -27.5795 -27.5782
   -27.5732 -27.5706 -27.5580 -27.5569 -23.8080 -23.8013 -23.7630 -23.7014
   -23.6935 -23.6901 -23.6320 -23.6169 -23.5766  16.4172  16.8219  17.1672
    17.5107  17.7988  17.8163  17.9225  17.9957  18.2207  18.2620  18.4339
    18.4977  18.6899  18.7564  18.8797  19.0308  19.2231  19.3366  19.4175
    19.4948  19.6206  19.6810  19.7563  19.8580  20.1738  20.3536  20.5232
    20.6526  20.7887  20.8280  21.0663  21.2627  21.4900  21.6588  22.1019
    22.2446  22.3436  22.4331  22.4838  22.6502  22.7519  22.8566  23.0917
    23.9056  26.2563  27.4896  28.1730  29.0676  29.5764  30.1861  30.6503
    31.6830  33.9665  35.1967  35.4063  35.6066  35.7525

          k = 0.1429-0.4280-0.0621 ( 15793 PWs)   bands (ev):

   -75.9546 -75.8885 -75.8172 -61.8536 -61.8533 -55.8541 -55.8461 -55.8259
   -44.3701 -44.3556 -44.3554 -44.3524 -44.3429 -44.3410 -44.3410 -44.2990
   -44.2884 -44.2882 -44.2753 -44.2703 -44.2691 -44.2690 -44.2215 -44.2134
   -44.2133 -44.1970 -44.1920 -44.1918 -44.1918 -30.0697 -30.0662 -30.0650
   -30.0629 -30.0293 -29.9868 -29.9341 -29.9099 -29.8934 -27.5801 -27.5774
   -27.5730 -27.5709 -27.5582 -27.5566 -23.8079 -23.8017 -23.7627 -23.7012
   -23.6939 -23.6900 -23.6318 -23.6171 -23.5766  16.3096  16.9616  17.1803
    17.5701  17.6594  17.7279  17.7796  17.9411  17.9681  18.3309  18.4013
    18.4956  18.7353  19.0328  19.0680  19.1227  19.2845  19.3911  19.4747
    19.5512  19.7469  19.8294  19.9055  20.0338  20.0882  20.3165  20.4315
    20.4852  20.5703  21.0575  21.2011  21.3193  21.4090  21.5813  21.9281
    21.9801  22.0153  22.1288  22.1424  22.6621  22.8753  22.9894  23.6797
    24.7768  24.9104  26.1601  28.7295  29.9523  30.2590  31.1440  31.6560
    32.6019  32.7961  33.5035  33.9419  34.3313  35.7804

          k = 0.1429-0.2853 0.0621 ( 15801 PWs)   bands (ev):

   -75.9547 -75.8890 -75.8167 -61.8536 -61.8533 -55.8563 -55.8460 -55.8238
   -44.3701 -44.3556 -44.3554 -44.3524 -44.3429 -44.3410 -44.3410 -44.2991
   -44.2884 -44.2882 -44.2753 -44.2703 -44.2691 -44.2690 -44.2215 -44.2134
   -44.2133 -44.1970 -44.1920 -44.1918 -44.1918 -30.0968 -30.0660 -30.0649
   -30.0629 -30.0168 -29.9891 -29.9456 -29.9073 -29.8641 -27.5801 -27.5782
   -27.5725 -27.5711 -27.5592 -27.5562 -23.8097 -23.7893 -23.7617 -23.7069
   -23.6913 -23.6890 -23.6293 -23.6162 -23.5820  15.3624  16.6265  17.1510
    17.2810  17.4181  17.4814  17.5592  17.6946  17.7855  17.8842  17.9564
    18.3192  18.5653  18.7290  18.9437  19.0641  19.3396  19.4377  19.6054
    19.6840  19.9538  20.0749  20.2050  20.3285  20.5386  20.6040  20.7133
    20.8224  20.9109  21.0477  21.5228  21.7261  21.7817  21.8958  21.9323
    22.2773  22.4629  22.4941  22.5250  22.8787  22.9472  23.0287  23.6355
    23.8337  26.5463  27.2511  27.8666  28.6298  29.9226  31.0883  31.5132
    32.6164  33.5604  34.2590  34.6511  35.4337  35.7911

          k = 0.1429-0.2852 0.1864 ( 15786 PWs)   bands (ev):

   -75.9546 -75.8890 -75.8167 -61.8536 -61.8533 -55.8563 -55.8460 -55.8238
   -44.3701 -44.3556 -44.3554 -44.3524 -44.3429 -44.3410 -44.3410 -44.2991
   -44.2884 -44.2882 -44.2753 -44.2703 -44.2691 -44.2690 -44.2215 -44.2134
   -44.2133 -44.1970 -44.1920 -44.1918 -44.1918 -30.0968 -30.0660 -30.0649
   -30.0629 -30.0167 -29.9891 -29.9456 -29.9073 -29.8641 -27.5796 -27.5787
   -27.5727 -27.5708 -27.5588 -27.5567 -23.8102 -23.7887 -23.7620 -23.7067
   -23.6909 -23.6892 -23.6298 -23.6159 -23.5821  15.5558  16.2609  17.2452
    17.3407  17.4483  17.4741  17.5702  17.6797  17.8513  17.9116  18.0680
    18.2211  18.3096  18.5496  19.0286  19.0523  19.4817  19.6595  19.7920
    19.8720  19.9425  19.9984  20.0943  20.1347  20.2863  20.4539  20.8777
    20.9909  21.0816  21.1382  21.3132  21.4469  21.5228  21.6269  21.7650
    22.0552  22.6178  22.6903  22.7276  22.8674  22.9643  22.9953  24.4970
    25.0267  25.5809  26.8507  27.8709  28.5915  29.4480  30.7821  31.8076
    32.5113  33.0709  33.9515  34.9623  35.2305  35.7417

          k = 0.1428-0.2854-0.1864 ( 15783 PWs)   bands (ev):

   -75.9546 -75.8890 -75.8167 -61.8536 -61.8533 -55.8563 -55.8460 -55.8238
   -44.3701 -44.3556 -44.3554 -44.3524 -44.3429 -44.3410 -44.3410 -44.2991
   -44.2884 -44.2882 -44.2753 -44.2703 -44.2691 -44.2690 -44.2215 -44.2134
   -44.2133 -44.1970 -44.1920 -44.1918 -44.1918 -30.0968 -30.0661 -30.0649
   -30.0629 -30.0167 -29.9891 -29.9456 -29.9073 -29.8641 -27.5796 -27.5787
   -27.5727 -27.5708 -27.5588 -27.5566 -23.8102 -23.7887 -23.7621 -23.7067
   -23.6909 -23.6892 -23.6298 -23.6159 -23.5821  15.5566  16.2598  17.2459
    17.3420  17.4487  17.4731  17.5692  17.6784  17.8515  17.9120  18.0685
    18.2206  18.3093  18.5487  19.0280  19.0537  19.4835  19.6624  19.7903
    19.8695  19.9436  20.0000  20.0932  20.1363  20.2857  20.4527  20.8793
    20.9904  21.0804  21.1398  21.3120  21.4464  21.5232  21.6261  21.7642
    22.0555  22.6178  22.6904  22.7276  22.8671  22.9636  22.9950  24.4946
    25.0314  25.5862  26.8459  27.8727  28.5859  29.4409  30.7927  31.8065
    32.5152  33.0741  33.9469  34.9630  35.2300  35.7453

          k = 0.1429-0.2854-0.0621 ( 15799 PWs)   bands (ev):

   -75.9547 -75.8890 -75.8167 -61.8536 -61.8533 -55.8563 -55.8460 -55.8238
   -44.3701 -44.3556 -44.3554 -44.3524 -44.3429 -44.3410 -44.3410 -44.2991
   -44.2884 -44.2882 -44.2753 -44.2703 -44.2691 -44.2690 -44.2215 -44.2134
   -44.2133 -44.1970 -44.1920 -44.1918 -44.1918 -30.0968 -30.0660 -30.0649
   -30.0629 -30.0168 -29.9891 -29.9456 -29.9073 -29.8641 -27.5800 -27.5782
   -27.5725 -27.5711 -27.5592 -27.5562 -23.8097 -23.7893 -23.7617 -23.7069
   -23.6913 -23.6890 -23.6293 -23.6162 -23.5820  15.3628  16.6256  17.1512
    17.2813  17.4189  17.4814  17.5591  17.6940  17.7856  17.8831  17.9558
    18.3195  18.5652  18.7294  18.9442  19.0636  19.3409  19.4399  19.6036
    19.6833  19.9519  20.0775  20.2060  20.3287  20.5382  20.6031  20.7151
    20.8212  20.9107  21.0470  21.5251  21.7251  21.7818  21.8957  21.9315
    22.2758  22.4615  22.4944  22.5245  22.8779  22.9466  23.0286  23.6393
    23.8338  26.5526  27.2518  27.8588  28.6263  29.9206  31.0886  31.5156
    32.6261  33.5633  34.2630  34.6493  35.4267  35.7847

          k = 0.1429-0.1426 0.0621 ( 15817 PWs)   bands (ev):

   -75.9547 -75.8897 -75.8161 -61.8537 -61.8534 -55.8586 -55.8460 -55.8216
   -44.3701 -44.3556 -44.3554 -44.3524 -44.3429 -44.3410 -44.3410 -44.2991
   -44.2884 -44.2882 -44.2753 -44.2703 -44.2691 -44.2690 -44.2215 -44.2134
   -44.2133 -44.1970 -44.1920 -44.1918 -44.1918 -30.1034 -30.0657 -30.0642
   -30.0630 -30.0541 -29.9917 -29.9062 -29.9042 -29.8558 -27.5798 -27.5788
   -27.5722 -27.5716 -27.5602 -27.5559 -23.8098 -23.7744 -23.7580 -23.7182
   -23.6888 -23.6876 -23.6245 -23.6137 -23.5912  14.6748  16.2952  16.7878
    16.9343  17.0704  17.2022  17.2449  17.2828  17.5308  17.7696  18.0208
    18.1288  18.2219  18.5343  18.7096  19.1031  19.2945  19.5264  19.6789
    19.7702  19.8153  19.9073  20.4158  20.8641  21.0079  21.1263  21.2855
    21.4117  21.5958  21.6363  21.7174  21.8577  22.0521  22.2044  22.2598
    22.3773  22.6306  22.7008  22.7573  22.8417  22.9884  23.0887  23.1172
    25.6158  25.6294  27.0214  28.7010  29.0204  29.8715  30.7909  32.2397
    33.2159  33.9249  34.2163  34.6975  35.0041  35.3564

          k = 0.1429-0.1426 0.1864 ( 15835 PWs)   bands (ev):

   -75.9547 -75.8897 -75.8161 -61.8537 -61.8534 -55.8586 -55.8460 -55.8216
   -44.3701 -44.3556 -44.3554 -44.3524 -44.3429 -44.3410 -44.3410 -44.2991
   -44.2884 -44.2882 -44.2753 -44.2703 -44.2691 -44.2690 -44.2215 -44.2134
   -44.2133 -44.1970 -44.1920 -44.1918 -44.1918 -30.1034 -30.0658 -30.0642
   -30.0630 -30.0541 -29.9917 -29.9062 -29.9042 -29.8558 -27.5796 -27.5790
   -27.5724 -27.5714 -27.5596 -27.5565 -23.8107 -23.7735 -23.7584 -23.7176
   -23.6885 -23.6877 -23.6252 -23.6134 -23.5913  14.9333  15.7890  16.9441
    17.0599  17.2065  17.2919  17.3470  17.4152  17.5271  17.5370  17.6608
    17.7958  17.9039  18.1259  18.9672  19.2387  19.7305  19.7843  19.9302
    20.0389  20.0823  20.2303  20.4227  20.9157  20.9821  21.0841  21.1965
    21.2067  21.3699  21.4143  21.5613  21.7122  21.7444  21.9063  22.0224
    22.0787  22.8140  22.8747  22.9117  22.9607  23.0735  23.1433  23.8705
    25.5236  26.4982  26.6132  27.7050  27.9099  30.7431  31.7041  32.0607
    32.8729  33.4174  34.3255  34.5979  34.8807  35.3760

          k = 0.1428-0.1428-0.1864 ( 15837 PWs)   bands (ev):

   -75.9547 -75.8897 -75.8161 -61.8537 -61.8534 -55.8586 -55.8460 -55.8216
   -44.3701 -44.3556 -44.3554 -44.3524 -44.3429 -44.3410 -44.3410 -44.2991
   -44.2884 -44.2882 -44.2753 -44.2703 -44.2691 -44.2690 -44.2215 -44.2134
   -44.2133 -44.1970 -44.1920 -44.1918 -44.1918 -30.1034 -30.0658 -30.0642
   -30.0630 -30.0541 -29.9917 -29.9062 -29.9042 -29.8558 -27.5796 -27.5790
   -27.5724 -27.5714 -27.5596 -27.5565 -23.8107 -23.7734 -23.7584 -23.7176
   -23.6885 -23.6877 -23.6252 -23.6134 -23.5913  14.9338  15.7884  16.9448
    17.0604  17.2074  17.2915  17.3465  17.4152  17.5264  17.5368  17.6604
    17.7958  17.9032  18.1255  18.9664  19.2407  19.7290  19.7854  19.9310
    20.0385  20.0816  20.2312  20.4231  20.9162  20.9819  21.0840  21.1962
    21.2066  21.3694  21.4143  21.5626  21.7128  21.7447  21.9064  22.0221
    22.0786  22.8144  22.8755  22.9110  22.9603  23.0724  23.1426  23.8715
    25.5217  26.4968  26.6130  27.7078  27.9109  30.7385  31.7001  32.0646
    32.8775  33.4152  34.3262  34.5984  34.8844  35.3751

          k = 0.1429-0.1427-0.0621 ( 15819 PWs)   bands (ev):

   -75.9547 -75.8897 -75.8161 -61.8537 -61.8534 -55.8586 -55.8460 -55.8216
   -44.3701 -44.3556 -44.3554 -44.3524 -44.3429 -44.3410 -44.3410 -44.2991
   -44.2884 -44.2882 -44.2753 -44.2703 -44.2691 -44.2690 -44.2215 -44.2134
   -44.2133 -44.1970 -44.1920 -44.1918 -44.1918 -30.1034 -30.0657 -30.0642
   -30.0630 -30.0541 -29.9917 -29.9062 -29.9042 -29.8558 -27.5798 -27.5788
   -27.5722 -27.5716 -27.5602 -27.5559 -23.8098 -23.7744 -23.7581 -23.7182
   -23.6888 -23.6876 -23.6245 -23.6137 -23.5912  14.6751  16.2947  16.7881
    16.9344  17.0710  17.2023  17.2449  17.2825  17.5304  17.7692  18.0209
    18.1277  18.2212  18.5338  18.7095  19.1041  19.2954  19.5279  19.6787
    19.7704  19.8150  19.9073  20.4138  20.8655  21.0081  21.1264  21.2855
    21.4132  21.5957  21.6361  21.7173  21.8577  22.0526  22.2046  22.2602
    22.3777  22.6306  22.7009  22.7572  22.8413  22.9877  23.0877  23.1166
    25.6150  25.6301  27.0200  28.7044  29.0217  29.8673  30.7885  32.2398
    33.2172  33.9259  34.2209  34.7005  35.0035  35.3556

          k = 0.2857 0.0000 0.0621 ( 15816 PWs)   bands (ev):

   -75.9547 -75.8892 -75.8166 -61.8537 -61.8533 -55.8574 -55.8459 -55.8228
   -44.3701 -44.3556 -44.3554 -44.3524 -44.3429 -44.3410 -44.3410 -44.2991
   -44.2884 -44.2882 -44.2753 -44.2703 -44.2690 -44.2690 -44.2215 -44.2134
   -44.2133 -44.1970 -44.1920 -44.1918 -44.1918 -30.0659 -30.0646 -30.0626
   -30.0597 -30.0575 -29.9896 -29.9066 -29.9036 -29.9011 -27.5793 -27.5778
   -27.5723 -27.5708 -27.5595 -27.5562 -23.8101 -23.7887 -23.7521 -23.7169
   -23.6919 -23.6885 -23.6287 -23.6114 -23.5876  15.1682  16.6925  17.0092
    17.2220  17.3707  17.3735  17.5228  17.5923  17.8777  18.0242  18.1248
    18.2895  18.4839  18.6437  18.6941  18.7777  18.9923  19.3240  19.3267
    19.6283  20.0071  20.0697  20.6166  20.6562  20.7313  20.8388  20.8448
    21.1234  21.2181  21.3099  21.3319  21.6237  21.7528  21.9732  22.0827
    22.1633  22.2797  22.3651  22.4444  22.6710  23.0894  23.1159  23.2239
    23.7293  26.3750  27.8621  28.1056  28.5989  31.6986  32.2981  32.3728
    33.2452  33.5373  33.8420  33.8488  34.0513  34.8172

          k = 0.2857 0.0001 0.1864 ( 15785 PWs)   bands (ev):

   -75.9547 -75.8892 -75.8166 -61.8537 -61.8533 -55.8574 -55.8459 -55.8228
   -44.3701 -44.3556 -44.3554 -44.3524 -44.3429 -44.3410 -44.3410 -44.2991
   -44.2884 -44.2882 -44.2753 -44.2703 -44.2690 -44.2690 -44.2215 -44.2134
   -44.2133 -44.1970 -44.1920 -44.1918 -44.1918 -30.0659 -30.0646 -30.0624
   -30.0598 -30.0577 -29.9896 -29.9066 -29.9036 -29.9011 -27.5794 -27.5778
   -27.5722 -27.5708 -27.5590 -27.5567 -23.8107 -23.7880 -23.7521 -23.7170
   -23.6917 -23.6885 -23.6291 -23.6114 -23.5874  15.4168  16.2076  17.1889
    17.3494  17.4994  17.5242  17.5616  17.6037  17.7840  17.8849  17.9255
    17.9917  17.9966  18.3772  18.8749  19.0086  19.3641  19.6125  19.8411
    19.8764  20.0340  20.1464  20.1952  20.2024  20.5678  20.5810  20.6702
    20.8537  21.4061  21.5634  21.6556  21.9003  21.9713  21.9847  22.0426
    22.1352  22.1730  22.3011  22.3562  22.3927  22.7981  22.9046  24.1529
    24.8858  25.3897  26.4820  28.9194  29.4575  30.3776  30.8038  32.9649
    33.2227  33.7367  34.5353  34.6442  35.0225  35.3162

          k = 0.2857-0.0001-0.1864 ( 15785 PWs)   bands (ev):

   -75.9547 -75.8892 -75.8166 -61.8537 -61.8533 -55.8574 -55.8459 -55.8228
   -44.3701 -44.3556 -44.3554 -44.3524 -44.3429 -44.3410 -44.3410 -44.2991
   -44.2884 -44.2882 -44.2753 -44.2703 -44.2690 -44.2690 -44.2215 -44.2134
   -44.2133 -44.1970 -44.1920 -44.1918 -44.1918 -30.0659 -30.0646 -30.0624
   -30.0598 -30.0577 -29.9896 -29.9066 -29.9036 -29.9011 -27.5794 -27.5778
   -27.5722 -27.5708 -27.5590 -27.5567 -23.8107 -23.7880 -23.7521 -23.7170
   -23.6917 -23.6885 -23.6291 -23.6114 -23.5874  15.4167  16.2077  17.1889
    17.3492  17.4995  17.5243  17.5616  17.6036  17.7840  17.8850  17.9256
    17.9918  17.9965  18.3773  18.8751  19.0083  19.3637  19.6124  19.8410
    19.8770  20.0335  20.1461  20.1950  20.2026  20.5680  20.5810  20.6701
    20.8538  21.4062  21.5635  21.6554  21.9006  21.9715  21.9848  22.0426
    22.1349  22.1731  22.3010  22.3562  22.3927  22.7981  22.9046  24.1533
    24.8852  25.3891  26.4826  28.9204  29.4573  30.3766  30.8041  32.9647
    33.2228  33.7366  34.5351  34.6443  35.0224  35.3160

          k = 0.2857-0.0000-0.0621 ( 15816 PWs)   bands (ev):

   -75.9547 -75.8892 -75.8166 -61.8537 -61.8533 -55.8574 -55.8459 -55.8228
   -44.3701 -44.3556 -44.3554 -44.3524 -44.3429 -44.3410 -44.3410 -44.2991
   -44.2884 -44.2882 -44.2753 -44.2703 -44.2690 -44.2690 -44.2215 -44.2134
   -44.2133 -44.1970 -44.1920 -44.1918 -44.1918 -30.0659 -30.0646 -30.0626
   -30.0597 -30.0575 -29.9896 -29.9066 -29.9036 -29.9011 -27.5793 -27.5778
   -27.5723 -27.5708 -27.5595 -27.5562 -23.8101 -23.7887 -23.7521 -23.7169
   -23.6919 -23.6885 -23.6287 -23.6114 -23.5876  15.1682  16.6926  17.0092
    17.2220  17.3707  17.3735  17.5228  17.5924  17.8778  18.0243  18.1249
    18.2896  18.4840  18.6435  18.6942  18.7777  18.9921  19.3238  19.3264
    19.6286  20.0072  20.0694  20.6165  20.6562  20.7309  20.8389  20.8448
    21.1237  21.2182  21.3097  21.3320  21.6237  21.7528  21.9734  22.0829
    22.1634  22.2797  22.3651  22.4443  22.6711  23.0896  23.1159  23.2239
    23.7289  26.3744  27.8629  28.1059  28.5988  31.6981  32.2984  32.3726
    33.2449  33.5372  33.8419  33.8485  34.0513  34.8171

          k = 0.2857 0.1427 0.0621 ( 15803 PWs)   bands (ev):

   -75.9547 -75.8890 -75.8167 -61.8536 -61.8533 -55.8563 -55.8459 -55.8239
   -44.3701 -44.3556 -44.3554 -44.3524 -44.3429 -44.3410 -44.3410 -44.2991
   -44.2884 -44.2882 -44.2753 -44.2703 -44.2691 -44.2690 -44.2215 -44.2134
   -44.2133 -44.1970 -44.1920 -44.1918 -44.1918 -30.0968 -30.0660 -30.0650
   -30.0628 -30.0168 -29.9891 -29.9457 -29.9072 -29.8641 -27.5802 -27.5780
   -27.5725 -27.5712 -27.5592 -27.5562 -23.8097 -23.7893 -23.7617 -23.7071
   -23.6917 -23.6887 -23.6289 -23.6165 -23.5819  15.3646  16.6267  17.1537
    17.2825  17.4193  17.4819  17.5593  17.6947  17.7855  17.8833  17.9554
    18.3201  18.5648  18.7294  18.9492  19.0623  19.3369  19.4363  19.6011
    19.6814  19.9547  20.0679  20.2082  20.3291  20.5406  20.6088  20.7175
    20.8252  20.9152  21.0502  21.5262  21.7212  21.7825  21.8928  21.9322
    22.2763  22.4638  22.4950  22.5251  22.8775  22.9440  23.0233  23.6422
    23.8391  26.5642  27.2404  27.8751  28.6329  29.9069  31.0806  31.4962
    32.6232  33.5615  34.2590  34.6417  35.4260  35.7670

          k = 0.2857 0.1428 0.1864 ( 15786 PWs)   bands (ev):

   -75.9546 -75.8890 -75.8167 -61.8536 -61.8533 -55.8564 -55.8459 -55.8239
   -44.3701 -44.3556 -44.3554 -44.3524 -44.3429 -44.3410 -44.3410 -44.2991
   -44.2884 -44.2882 -44.2753 -44.2703 -44.2691 -44.2690 -44.2215 -44.2134
   -44.2133 -44.1970 -44.1920 -44.1918 -44.1918 -30.0968 -30.0660 -30.0650
   -30.0628 -30.0168 -29.9891 -29.9457 -29.9073 -29.8641 -27.5799 -27.5784
   -27.5727 -27.5708 -27.5588 -27.5567 -23.8102 -23.7887 -23.7621 -23.7069
   -23.6913 -23.6888 -23.6294 -23.6162 -23.5820  15.5580  16.2611  17.2483
    17.3419  17.4486  17.4731  17.5691  17.6786  17.8516  17.9126  18.0702
    18.2217  18.3099  18.5506  19.0279  19.0562  19.4830  19.6587  19.7915
    19.8655  19.9455  20.0012  20.0934  20.1318  20.2842  20.4553  20.8820
    20.9928  21.0831  21.1402  21.3157  21.4429  21.5246  21.6276  21.7599
    22.0532  22.6172  22.6905  22.7274  22.8655  22.9617  22.9930  24.5058
    25.0361  25.5959  26.8532  27.8573  28.5841  29.4487  30.7967  31.7989
    32.4948  33.0680  33.9418  34.9341  35.1982  35.7383

          k = 0.2857 0.1426-0.1864 ( 15784 PWs)   bands (ev):

   -75.9546 -75.8890 -75.8167 -61.8536 -61.8533 -55.8564 -55.8459 -55.8239
   -44.3701 -44.3556 -44.3554 -44.3524 -44.3429 -44.3410 -44.3410 -44.2991
   -44.2884 -44.2882 -44.2753 -44.2703 -44.2691 -44.2690 -44.2215 -44.2134
   -44.2133 -44.1970 -44.1920 -44.1918 -44.1918 -30.0968 -30.0660 -30.0650
   -30.0628 -30.0168 -29.9891 -29.9457 -29.9073 -29.8641 -27.5798 -27.5785
   -27.5728 -27.5708 -27.5587 -27.5567 -23.8102 -23.7887 -23.7621 -23.7069
   -23.6913 -23.6888 -23.6294 -23.6162 -23.5820  15.5574  16.2619  17.2463
    17.3410  17.4487  17.4737  17.5704  17.6799  17.8521  17.9124  18.0702
    18.2222  18.3098  18.5509  19.0285  19.0554  19.4822  19.6596  19.7899
    19.8639  19.9460  20.0018  20.0937  20.1322  20.2847  20.4557  20.8824
    20.9912  21.0817  21.1397  21.3156  21.4443  21.5243  21.6277  21.7608
    22.0523  22.6162  22.6898  22.7272  22.8664  22.9627  22.9942  24.5049
    25.0354  25.5962  26.8552  27.8596  28.5833  29.4448  30.7980  31.8023
    32.5035  33.0631  33.9309  34.9296  35.2034  35.7347

          k = 0.2857 0.1426-0.0621 ( 15799 PWs)   bands (ev):

   -75.9547 -75.8890 -75.8167 -61.8536 -61.8533 -55.8563 -55.8459 -55.8239
   -44.3701 -44.3556 -44.3554 -44.3524 -44.3429 -44.3410 -44.3410 -44.2991
   -44.2884 -44.2882 -44.2753 -44.2703 -44.2691 -44.2690 -44.2215 -44.2134
   -44.2133 -44.1970 -44.1920 -44.1918 -44.1918 -30.0968 -30.0660 -30.0650
   -30.0628 -30.0168 -29.9891 -29.9457 -29.9072 -29.8641 -27.5802 -27.5780
   -27.5726 -27.5711 -27.5592 -27.5563 -23.8097 -23.7894 -23.7617 -23.7071
   -23.6917 -23.6886 -23.6289 -23.6165 -23.5819  15.3643  16.6273  17.1527
    17.2821  17.4186  17.4826  17.5599  17.6953  17.7855  17.8840  17.9561
    18.3203  18.5645  18.7293  18.9490  19.0627  19.3375  19.4370  19.5994
    19.6795  19.9533  20.0689  20.2117  20.3293  20.5404  20.6067  20.7177
    20.8243  20.9148  21.0505  21.5250  21.7219  21.7819  21.8939  21.9318
    22.2760  22.4636  22.4945  22.5253  22.8773  22.9447  23.0243  23.6426
    23.8384  26.5640  27.2411  27.8760  28.6349  29.9017  31.0815  31.5024
    32.6248  33.5589  34.2531  34.6384  35.4178  35.7739

          k = 0.2857 0.2854 0.0621 ( 15811 PWs)   bands (ev):

   -75.9546 -75.8887 -75.8170 -61.8536 -61.8533 -55.8536 -55.8459 -55.8265
   -44.3701 -44.3556 -44.3554 -44.3524 -44.3429 -44.3410 -44.3410 -44.2991
   -44.2884 -44.2882 -44.2753 -44.2703 -44.2691 -44.2690 -44.2215 -44.2134
   -44.2133 -44.1970 -44.1920 -44.1918 -44.1918 -30.1148 -30.0664 -30.0659
   -30.0640 -30.0330 -29.9878 -29.9306 -29.9089 -29.8470 -27.5819 -27.5782
   -27.5735 -27.5720 -27.5585 -27.5564 -23.8085 -23.7931 -23.7734 -23.6940
   -23.6906 -23.6888 -23.6301 -23.6230 -23.5733  15.8863  16.5931  17.2231
    17.3309  17.3755  17.5162  17.6011  17.7312  17.9203  18.0479  18.2779
    18.6269  18.8117  18.9925  19.1437  19.2882  19.5593  19.6368  19.8476
    19.8888  19.9380  19.9674  20.0828  20.1457  20.1901  20.2597  20.2955
    20.3439  20.4205  20.9162  21.4099  21.6187  21.6520  22.0728  22.1759
    22.2314  22.4721  22.5691  22.6788  22.7050  22.8375  22.8838  23.7176
    25.2379  25.2795  26.5427  26.7137  28.6300  29.4042  29.9220  30.4258
    32.1779  33.5257  33.7335  34.0599  34.2016  36.0578

          k = 0.2857 0.2854 0.1864 ( 15786 PWs)   bands (ev):

   -75.9546 -75.8887 -75.8170 -61.8536 -61.8533 -55.8536 -55.8459 -55.8265
   -44.3701 -44.3556 -44.3554 -44.3524 -44.3429 -44.3410 -44.3410 -44.2991
   -44.2884 -44.2882 -44.2753 -44.2703 -44.2691 -44.2690 -44.2215 -44.2134
   -44.2133 -44.1970 -44.1920 -44.1918 -44.1918 -30.1147 -30.0665 -30.0659
   -30.0640 -30.0330 -29.9878 -29.9306 -29.9089 -29.8470 -27.5809 -27.5792
   -27.5742 -27.5712 -27.5582 -27.5567 -23.8088 -23.7926 -23.7741 -23.6934
   -23.6901 -23.6893 -23.6305 -23.6224 -23.5736  15.9316  16.4461  17.2763
    17.3275  17.4308  17.4818  17.5341  17.6082  18.2567  18.3255  18.4871
    18.5991  18.6885  18.8794  19.1131  19.3716  19.5510  19.6386  19.7902
    19.8390  19.8935  19.9245  19.9672  20.0397  20.0733  20.1665  20.4521
    20.4912  20.6125  20.9055  20.9905  21.0765  21.3694  21.7857  21.8775
    21.9952  22.7617  22.8442  22.8571  22.9467  22.9764  23.0225  25.4386
    25.5429  25.6427  26.1079  26.1425  27.6759  29.6274  30.0315  30.9622
    31.1750  31.8978  32.5083  35.2171  35.9257  36.7183

          k = 0.2857 0.2852-0.1864 ( 15783 PWs)   bands (ev):

   -75.9546 -75.8887 -75.8170 -61.8536 -61.8533 -55.8536 -55.8459 -55.8265
   -44.3701 -44.3556 -44.3554 -44.3524 -44.3429 -44.3410 -44.3410 -44.2991
   -44.2884 -44.2882 -44.2753 -44.2703 -44.2691 -44.2690 -44.2215 -44.2134
   -44.2133 -44.1970 -44.1920 -44.1918 -44.1918 -30.1147 -30.0665 -30.0659
   -30.0640 -30.0330 -29.9878 -29.9306 -29.9089 -29.8470 -27.5808 -27.5793
   -27.5742 -27.5712 -27.5582 -27.5568 -23.8088 -23.7926 -23.7740 -23.6934
   -23.6901 -23.6893 -23.6305 -23.6224 -23.5736  15.9311  16.4468  17.2766
    17.3279  17.4317  17.4812  17.5336  17.6071  18.2565  18.3247  18.4872
    18.5996  18.6897  18.8805  19.1121  19.3715  19.5509  19.6385  19.7898
    19.8423  19.8931  19.9242  19.9653  20.0399  20.0732  20.1667  20.4501
    20.4898  20.6110  20.9065  20.9925  21.0779  21.3709  21.7845  21.8770
    21.9960  22.7633  22.8427  22.8585  22.9465  22.9764  23.0211  25.4372
    25.5423  25.6416  26.1076  26.1422  27.6791  29.6310  30.0342  30.9575
    31.1770  31.8951  32.5054  35.2265  35.9185  36.7086

          k = 0.2857 0.2853-0.0621 ( 15816 PWs)   bands (ev):

   -75.9546 -75.8887 -75.8170 -61.8536 -61.8533 -55.8536 -55.8459 -55.8265
   -44.3701 -44.3556 -44.3554 -44.3524 -44.3429 -44.3410 -44.3410 -44.2991
   -44.2884 -44.2882 -44.2753 -44.2703 -44.2691 -44.2690 -44.2215 -44.2134
   -44.2133 -44.1970 -44.1920 -44.1918 -44.1918 -30.1148 -30.0664 -30.0659
   -30.0640 -30.0330 -29.9878 -29.9306 -29.9089 -29.8470 -27.5819 -27.5782
   -27.5736 -27.5719 -27.5585 -27.5564 -23.8085 -23.7932 -23.7734 -23.6940
   -23.6906 -23.6888 -23.6301 -23.6230 -23.5733  15.8859  16.5937  17.2234
    17.3312  17.3760  17.5156  17.6000  17.7303  17.9209  18.0483  18.2777
    18.6272  18.8118  18.9929  19.1448  19.2879  19.5580  19.6366  19.8477
    19.8910  19.9382  19.9683  20.0805  20.1452  20.1888  20.2600  20.2949
    20.3437  20.4198  20.9176  21.4096  21.6196  21.6531  22.0730  22.1761
    22.2320  22.4727  22.5693  22.6787  22.7046  22.8363  22.8834  23.7164
    25.2377  25.2794  26.5424  26.7129  28.6317  29.4034  29.9279  30.4268
    32.1721  33.5211  33.7337  34.0628  34.1995  36.0602

          k = 0.2857 0.4280 0.0621 ( 15801 PWs)   bands (ev):

   -75.9546 -75.8885 -75.8172 -61.8536 -61.8533 -55.8508 -55.8460 -55.8291
   -44.3701 -44.3556 -44.3554 -44.3524 -44.3429 -44.3410 -44.3410 -44.2991
   -44.2884 -44.2882 -44.2753 -44.2703 -44.2691 -44.2690 -44.2215 -44.2134
   -44.2133 -44.1970 -44.1920 -44.1918 -44.1918 -30.1081 -30.0781 -30.0667
   -30.0662 -30.0650 -29.9868 -29.9103 -29.8863 -29.8552 -27.5829 -27.5780
   -27.5748 -27.5728 -27.5578 -27.5567 -23.8059 -23.8004 -23.7773 -23.6922
   -23.6886 -23.6844 -23.6322 -23.6253 -23.5680  16.4377  16.7650  16.9763
    17.0879  17.1336  17.6635  17.9644  18.1472  18.3215  18.4027  18.6068
    18.6741  18.8615  18.9843  19.2127  19.2271  19.3616  19.4184  19.5856
    19.6138  19.7103  19.8215  19.9301  20.0407  20.4710  20.5503  20.6665
    20.7895  20.8559  20.9742  21.1333  21.1843  21.2630  21.7427  22.1016
    22.2790  22.4185  22.5809  22.6593  22.7353  22.7893  23.3044  23.7576
    24.5140  24.6544  25.6374  26.5976  27.8561  29.2605  30.5998  31.0658
    31.3847  32.3149  32.6970  34.0361  34.9546  35.4653

          k = 0.2857 0.4281 0.1864 ( 15808 PWs)   bands (ev):

   -75.9546 -75.8885 -75.8172 -61.8536 -61.8533 -55.8508 -55.8460 -55.8291
   -44.3701 -44.3556 -44.3554 -44.3524 -44.3429 -44.3410 -44.3410 -44.2991
   -44.2884 -44.2882 -44.2753 -44.2703 -44.2691 -44.2690 -44.2215 -44.2134
   -44.2133 -44.1970 -44.1920 -44.1918 -44.1918 -30.1080 -30.0781 -30.0666
   -30.0661 -30.0652 -29.9869 -29.9103 -29.8863 -29.8552 -27.5815 -27.5794
   -27.5757 -27.5718 -27.5576 -27.5569 -23.8060 -23.8002 -23.7778 -23.6913
   -23.6894 -23.6839 -23.6324 -23.6249 -23.5684  16.4163  16.7451  16.9322
    17.2303  17.3708  17.4800  17.7199  17.7585  18.4659  18.5594  18.7574
    18.8658  18.9944  19.1060  19.2354  19.3999  19.5255  19.6080  19.6858
    19.7449  19.8906  19.9138  19.9729  20.1123  20.1507  20.1974  20.2773
    20.3382  20.4137  20.5734  20.6542  20.8246  21.7171  22.2326  22.2844
    22.5380  22.6124  22.6424  22.7053  22.7670  22.8345  22.8765  23.6561
    23.9545  26.2047  26.5149  26.7349  27.7537  29.1158  29.3239  29.8836
    30.8386  32.1292  33.5214  33.7387  35.2003  36.4982

          k = 0.2857 0.4279-0.1864 ( 15807 PWs)   bands (ev):

   -75.9546 -75.8885 -75.8172 -61.8536 -61.8533 -55.8508 -55.8460 -55.8291
   -44.3701 -44.3556 -44.3554 -44.3524 -44.3429 -44.3410 -44.3410 -44.2991
   -44.2884 -44.2882 -44.2753 -44.2703 -44.2691 -44.2690 -44.2215 -44.2134
   -44.2133 -44.1970 -44.1920 -44.1918 -44.1918 -30.1080 -30.0781 -30.0667
   -30.0660 -30.0652 -29.9869 -29.9103 -29.8863 -29.8552 -27.5815 -27.5795
   -27.5757 -27.5718 -27.5576 -27.5569 -23.8059 -23.8002 -23.7778 -23.6913
   -23.6894 -23.6839 -23.6324 -23.6249 -23.5684  16.4167  16.7449  16.9322
    17.2307  17.3711  17.4803  17.7188  17.7576  18.4654  18.5592  18.7581
    18.8662  18.9953  19.1061  19.2350  19.3985  19.5262  19.6093  19.6856
    19.7456  19.8905  19.9144  19.9714  20.1113  20.1502  20.1970  20.2780
    20.3367  20.4137  20.5744  20.6547  20.8261  21.7175  22.2317  22.2858
    22.5386  22.6133  22.6433  22.7049  22.7673  22.8339  22.8757  23.6550
    23.9527  26.2001  26.5187  26.7341  27.7546  29.1204  29.3279  29.8802
    30.8335  32.1242  33.5288  33.7456  35.1913  36.4887

          k = 0.2857 0.4280-0.0621 ( 15802 PWs)   bands (ev):

   -75.9546 -75.8885 -75.8172 -61.8536 -61.8533 -55.8508 -55.8460 -55.8291
   -44.3701 -44.3556 -44.3554 -44.3524 -44.3429 -44.3410 -44.3410 -44.2991
   -44.2884 -44.2882 -44.2753 -44.2703 -44.2691 -44.2690 -44.2215 -44.2134
   -44.2133 -44.1970 -44.1920 -44.1918 -44.1918 -30.1081 -30.0781 -30.0668
   -30.0661 -30.0650 -29.9868 -29.9103 -29.8863 -29.8552 -27.5829 -27.5780
   -27.5748 -27.5728 -27.5578 -27.5567 -23.8059 -23.8005 -23.7772 -23.6922
   -23.6886 -23.6844 -23.6322 -23.6253 -23.5680  16.4380  16.7650  16.9761
    17.0876  17.1342  17.6629  17.9639  18.1469  18.3215  18.4027  18.6072
    18.6738  18.8609  18.9850  19.2125  19.2279  19.3624  19.4183  19.5868
    19.6154  19.7077  19.8205  19.9322  20.0388  20.4680  20.5498  20.6657
    20.7910  20.8568  20.9751  21.1342  21.1859  21.2641  21.7423  22.1005
    22.2789  22.4178  22.5809  22.6600  22.7346  22.7897  23.3085  23.7572
    24.5088  24.6493  25.6436  26.5975  27.8560  29.2623  30.5974  31.0637
    31.3905  32.3191  32.6896  34.0280  34.9639  35.4706

          k = 0.2857-0.4280 0.0621 ( 15802 PWs)   bands (ev):

   -75.9546 -75.8885 -75.8172 -61.8536 -61.8533 -55.8508 -55.8460 -55.8291
   -44.3701 -44.3556 -44.3554 -44.3524 -44.3429 -44.3410 -44.3410 -44.2991
   -44.2884 -44.2882 -44.2753 -44.2703 -44.2691 -44.2690 -44.2215 -44.2134
   -44.2133 -44.1970 -44.1920 -44.1918 -44.1918 -30.1081 -30.0781 -30.0668
   -30.0661 -30.0650 -29.9868 -29.9103 -29.8862 -29.8552 -27.5829 -27.5780
   -27.5748 -27.5728 -27.5578 -27.5567 -23.8059 -23.8004 -23.7772 -23.6922
   -23.6886 -23.6844 -23.6322 -23.6253 -23.5680  16.4379  16.7650  16.9762
    17.0876  17.1341  17.6630  17.9640  18.1470  18.3215  18.4027  18.6072
    18.6738  18.8609  18.9848  19.2121  19.2277  19.3625  19.4183  19.5873
    19.6150  19.7077  19.8205  19.9324  20.0390  20.4681  20.5498  20.6654
    20.7912  20.8567  20.9752  21.1340  21.1859  21.2640  21.7423  22.1002
    22.2790  22.4177  22.5809  22.6601  22.7348  22.7897  23.3085  23.7573
    24.5088  24.6492  25.6437  26.5977  27.8558  29.2627  30.5977  31.0633
    31.3901  32.3185  32.6891  34.0286  34.9646  35.4716

          k = 0.2857-0.4279 0.1864 ( 15805 PWs)   bands (ev):

   -75.9546 -75.8885 -75.8172 -61.8536 -61.8533 -55.8508 -55.8460 -55.8291
   -44.3701 -44.3556 -44.3554 -44.3524 -44.3429 -44.3410 -44.3410 -44.2991
   -44.2884 -44.2882 -44.2753 -44.2703 -44.2691 -44.2690 -44.2215 -44.2134
   -44.2133 -44.1970 -44.1920 -44.1918 -44.1918 -30.1080 -30.0781 -30.0667
   -30.0660 -30.0652 -29.9869 -29.9103 -29.8862 -29.8552 -27.5815 -27.5795
   -27.5757 -27.5718 -27.5576 -27.5569 -23.8059 -23.8002 -23.7778 -23.6914
   -23.6894 -23.6839 -23.6324 -23.6249 -23.5684  16.4166  16.7449  16.9322
    17.2307  17.3710  17.4803  17.7189  17.7577  18.4656  18.5593  18.7579
    18.8662  18.9952  19.1059  19.2350  19.3986  19.5262  19.6094  19.6852
    19.7455  19.8906  19.9142  19.9713  20.1114  20.1503  20.1970  20.2778
    20.3371  20.4138  20.5744  20.6547  20.8258  21.7176  22.2315  22.2859
    22.5385  22.6132  22.6431  22.7050  22.7673  22.8341  22.8759  23.6551
    23.9526  26.2001  26.5188  26.7342  27.7545  29.1208  29.3276  29.8802
    30.8332  32.1236  33.5287  33.7458  35.1920  36.4894

          k = 0.2857-0.4281-0.1864 ( 15810 PWs)   bands (ev):

   -75.9546 -75.8885 -75.8172 -61.8536 -61.8533 -55.8508 -55.8460 -55.8291
   -44.3701 -44.3556 -44.3554 -44.3524 -44.3429 -44.3410 -44.3410 -44.2991
   -44.2884 -44.2882 -44.2753 -44.2703 -44.2691 -44.2690 -44.2215 -44.2134
   -44.2133 -44.1970 -44.1920 -44.1918 -44.1918 -30.1080 -30.0781 -30.0666
   -30.0661 -30.0652 -29.9869 -29.9103 -29.8862 -29.8552 -27.5815 -27.5795
   -27.5757 -27.5718 -27.5576 -27.5569 -23.8060 -23.8002 -23.7778 -23.6913
   -23.6894 -23.6839 -23.6324 -23.6249 -23.5684  16.4163  16.7450  16.9323
    17.2303  17.3709  17.4801  17.7197  17.7584  18.4657  18.5593  18.7577
    18.8659  18.9945  19.1062  19.2353  19.3998  19.5253  19.6079  19.6862
    19.7449  19.8905  19.9139  19.9730  20.1123  20.1506  20.1974  20.2774
    20.3378  20.4135  20.5734  20.6543  20.8249  21.7171  22.2328  22.2843
    22.5381  22.6124  22.6426  22.7052  22.7669  22.8343  22.8764  23.6561
    23.9546  26.2046  26.5149  26.7351  27.7535  29.1155  29.3240  29.8834
    30.8389  32.1300  33.5215  33.7386  35.1993  36.4974

          k = 0.2857-0.4280-0.0621 ( 15799 PWs)   bands (ev):

   -75.9546 -75.8885 -75.8172 -61.8536 -61.8533 -55.8508 -55.8460 -55.8291
   -44.3701 -44.3556 -44.3554 -44.3524 -44.3429 -44.3410 -44.3410 -44.2991
   -44.2884 -44.2882 -44.2753 -44.2703 -44.2691 -44.2690 -44.2215 -44.2134
   -44.2133 -44.1970 -44.1920 -44.1918 -44.1918 -30.1081 -30.0781 -30.0667
   -30.0662 -30.0650 -29.9868 -29.9103 -29.8862 -29.8552 -27.5829 -27.5780
   -27.5748 -27.5728 -27.5578 -27.5567 -23.8059 -23.8004 -23.7773 -23.6922
   -23.6886 -23.6844 -23.6322 -23.6253 -23.5680  16.4376  16.7650  16.9762
    17.0879  17.1337  17.6635  17.9642  18.1471  18.3215  18.4026  18.6068
    18.6741  18.8616  18.9843  19.2130  19.2272  19.3615  19.4184  19.5851
    19.6141  19.7103  19.8215  19.9300  20.0405  20.4711  20.5503  20.6668
    20.7893  20.8559  20.9742  21.1334  21.1843  21.2631  21.7425  22.1018
    22.2789  22.4186  22.5810  22.6593  22.7352  22.7893  23.3043  23.7577
    24.5140  24.6545  25.6373  26.5978  27.8558  29.2603  30.5993  31.0665
    31.3850  32.3152  32.6976  34.0355  34.9539  35.4646

          k = 0.2857-0.2853 0.0621 ( 15815 PWs)   bands (ev):

   -75.9546 -75.8887 -75.8170 -61.8536 -61.8533 -55.8536 -55.8459 -55.8265
   -44.3701 -44.3556 -44.3554 -44.3524 -44.3429 -44.3410 -44.3410 -44.2991
   -44.2884 -44.2882 -44.2753 -44.2703 -44.2691 -44.2690 -44.2215 -44.2134
   -44.2133 -44.1970 -44.1920 -44.1918 -44.1918 -30.1148 -30.0664 -30.0659
   -30.0640 -30.0330 -29.9878 -29.9306 -29.9089 -29.8470 -27.5819 -27.5782
   -27.5736 -27.5719 -27.5585 -27.5564 -23.8085 -23.7932 -23.7734 -23.6940
   -23.6906 -23.6888 -23.6301 -23.6230 -23.5733  15.8859  16.5936  17.2233
    17.3312  17.3759  17.5156  17.6000  17.7303  17.9208  18.0483  18.2777
    18.6271  18.8118  18.9928  19.1446  19.2880  19.5581  19.6365  19.8478
    19.8910  19.9383  19.9679  20.0809  20.1453  20.1889  20.2597  20.2951
    20.3438  20.4199  20.9175  21.4098  21.6196  21.6530  22.0729  22.1761
    22.2320  22.4726  22.5692  22.6789  22.7045  22.8365  22.8834  23.7164
    25.2378  25.2795  26.5424  26.7130  28.6316  29.4033  29.9273  30.4269
    32.1724  33.5215  33.7334  34.0626  34.1997  36.0601

          k = 0.2857-0.2852 0.1864 ( 15782 PWs)   bands (ev):

   -75.9546 -75.8887 -75.8170 -61.8536 -61.8533 -55.8536 -55.8459 -55.8265
   -44.3701 -44.3556 -44.3554 -44.3524 -44.3429 -44.3410 -44.3410 -44.2991
   -44.2884 -44.2882 -44.2753 -44.2703 -44.2691 -44.2690 -44.2215 -44.2134
   -44.2133 -44.1970 -44.1920 -44.1918 -44.1918 -30.1148 -30.0665 -30.0659
   -30.0640 -30.0329 -29.9878 -29.9306 -29.9089 -29.8470 -27.5809 -27.5793
   -27.5742 -27.5712 -27.5582 -27.5567 -23.8088 -23.7926 -23.7740 -23.6934
   -23.6901 -23.6893 -23.6305 -23.6224 -23.5736  15.9311  16.4467  17.2765
    17.3279  17.4316  17.4812  17.5336  17.6071  18.2565  18.3248  18.4871
    18.5996  18.6895  18.8804  19.1122  19.3715  19.5510  19.6384  19.7900
    19.8419  19.8932  19.9241  19.9658  20.0398  20.0732  20.1666  20.4502
    20.4900  20.6112  20.9066  20.9924  21.0776  21.3709  21.7846  21.8771
    21.9959  22.7632  22.8429  22.8583  22.9466  22.9764  23.0213  25.4373
    25.5426  25.6417  26.1074  26.1425  27.6788  29.6307  30.0338  30.9577
    31.1771  31.8952  32.5058  35.2256  35.9191  36.7092

          k = 0.2857-0.2854-0.1864 ( 15787 PWs)   bands (ev):

   -75.9546 -75.8887 -75.8170 -61.8536 -61.8533 -55.8536 -55.8459 -55.8265
   -44.3701 -44.3556 -44.3554 -44.3524 -44.3429 -44.3410 -44.3410 -44.2991
   -44.2884 -44.2882 -44.2753 -44.2703 -44.2691 -44.2690 -44.2215 -44.2134
   -44.2133 -44.1970 -44.1920 -44.1918 -44.1918 -30.1148 -30.0665 -30.0659
   -30.0640 -30.0329 -29.9878 -29.9306 -29.9089 -29.8470 -27.5809 -27.5793
   -27.5742 -27.5712 -27.5582 -27.5567 -23.8088 -23.7926 -23.7741 -23.6934
   -23.6901 -23.6893 -23.6306 -23.6224 -23.5736  15.9315  16.4461  17.2763
    17.3275  17.4308  17.4817  17.5340  17.6080  18.2566  18.3253  18.4872
    18.5991  18.6886  18.8795  19.1129  19.3716  19.5510  19.6386  19.7900
    19.8396  19.8934  19.9247  19.9668  20.0397  20.0733  20.1666  20.4521
    20.4911  20.6125  20.9055  20.9907  21.0768  21.3696  21.7857  21.8775
    21.9953  22.7618  22.8442  22.8574  22.9467  22.9764  23.0224  25.4386
    25.5428  25.6427  26.1081  26.1424  27.6761  29.6277  30.0316  30.9617
    31.1751  31.8977  32.5081  35.2177  35.9250  36.7173

          k = 0.2857-0.2854-0.0621 ( 15811 PWs)   bands (ev):

   -75.9546 -75.8887 -75.8170 -61.8536 -61.8533 -55.8536 -55.8459 -55.8265
   -44.3701 -44.3556 -44.3554 -44.3524 -44.3429 -44.3410 -44.3410 -44.2991
   -44.2884 -44.2882 -44.2753 -44.2703 -44.2691 -44.2690 -44.2215 -44.2134
   -44.2133 -44.1970 -44.1920 -44.1918 -44.1918 -30.1148 -30.0664 -30.0659
   -30.0640 -30.0330 -29.9878 -29.9306 -29.9089 -29.8470 -27.5819 -27.5782
   -27.5735 -27.5720 -27.5585 -27.5564 -23.8085 -23.7931 -23.7734 -23.6940
   -23.6906 -23.6888 -23.6301 -23.6230 -23.5733  15.8862  16.5931  17.2231
    17.3310  17.3755  17.5161  17.6010  17.7312  17.9203  18.0479  18.2779
    18.6269  18.8116  18.9925  19.1438  19.2882  19.5591  19.6368  19.8475
    19.8889  19.9380  19.9676  20.0825  20.1456  20.1902  20.2599  20.2954
    20.3438  20.4205  20.9164  21.4099  21.6187  21.6521  22.0729  22.1760
    22.2315  22.4722  22.5692  22.6786  22.7051  22.8374  22.8839  23.7174
    25.2380  25.2796  26.5427  26.7137  28.6302  29.4040  29.9225  30.4260
    32.1772  33.5253  33.7337  34.0599  34.2014  36.0580

          k = 0.2857-0.1426 0.0621 ( 15798 PWs)   bands (ev):

   -75.9547 -75.8890 -75.8167 -61.8536 -61.8533 -55.8563 -55.8459 -55.8239
   -44.3701 -44.3556 -44.3554 -44.3524 -44.3429 -44.3410 -44.3410 -44.2991
   -44.2884 -44.2882 -44.2753 -44.2703 -44.2691 -44.2690 -44.2215 -44.2134
   -44.2133 -44.1970 -44.1920 -44.1918 -44.1918 -30.0968 -30.0660 -30.0650
   -30.0628 -30.0168 -29.9891 -29.9457 -29.9073 -29.8641 -27.5802 -27.5780
   -27.5726 -27.5711 -27.5592 -27.5562 -23.8097 -23.7893 -23.7617 -23.7071
   -23.6917 -23.6886 -23.6289 -23.6165 -23.5819  15.3643  16.6271  17.1527
    17.2821  17.4187  17.4825  17.5599  17.6952  17.7855  17.8839  17.9561
    18.3202  18.5645  18.7294  18.9491  19.0625  19.3378  19.4373  19.5993
    19.6795  19.9532  20.0691  20.2117  20.3294  20.5405  20.6067  20.7180
    20.8242  20.9148  21.0504  21.5252  21.7218  21.7821  21.8937  21.9319
    22.2757  22.4634  22.4946  22.5254  22.8774  22.9445  23.0243  23.6430
    23.8384  26.5646  27.2413  27.8752  28.6345  29.9016  31.0813  31.5027
    32.6256  33.5592  34.2534  34.6383  35.4173  35.7733

          k = 0.2857-0.1426 0.1864 ( 15784 PWs)   bands (ev):

   -75.9546 -75.8890 -75.8167 -61.8536 -61.8533 -55.8564 -55.8459 -55.8239
   -44.3701 -44.3556 -44.3554 -44.3524 -44.3429 -44.3410 -44.3410 -44.2991
   -44.2884 -44.2882 -44.2753 -44.2703 -44.2691 -44.2690 -44.2215 -44.2134
   -44.2133 -44.1970 -44.1920 -44.1918 -44.1918 -30.0968 -30.0660 -30.0650
   -30.0628 -30.0167 -29.9891 -29.9456 -29.9073 -29.8641 -27.5799 -27.5785
   -27.5728 -27.5708 -27.5588 -27.5567 -23.8102 -23.7887 -23.7621 -23.7069
   -23.6913 -23.6888 -23.6294 -23.6162 -23.5820  15.5574  16.2617  17.2464
    17.3411  17.4487  17.4735  17.5703  17.6797  17.8521  17.9125  18.0702
    18.2221  18.3098  18.5509  19.0283  19.0556  19.4825  19.6598  19.7896
    19.8637  19.9461  20.0022  20.0938  20.1322  20.2846  20.4555  20.8827
    20.9911  21.0817  21.1394  21.3157  21.4441  21.5247  21.6276  21.7608
    22.0523  22.6161  22.6899  22.7273  22.8664  22.9626  22.9942  24.5046
    25.0358  25.5967  26.8547  27.8598  28.5828  29.4442  30.7989  31.8020
    32.5038  33.0632  33.9306  34.9296  35.2031  35.7350

          k = 0.2857-0.1428-0.1864 ( 15786 PWs)   bands (ev):

   -75.9546 -75.8890 -75.8167 -61.8536 -61.8533 -55.8564 -55.8459 -55.8239
   -44.3701 -44.3556 -44.3554 -44.3524 -44.3429 -44.3410 -44.3410 -44.2991
   -44.2884 -44.2882 -44.2753 -44.2703 -44.2691 -44.2690 -44.2215 -44.2134
   -44.2133 -44.1970 -44.1920 -44.1918 -44.1918 -30.0968 -30.0660 -30.0650
   -30.0628 -30.0167 -29.9891 -29.9456 -29.9073 -29.8641 -27.5799 -27.5784
   -27.5727 -27.5708 -27.5587 -27.5567 -23.8102 -23.7887 -23.7621 -23.7069
   -23.6913 -23.6888 -23.6294 -23.6162 -23.5820  15.5579  16.2612  17.2481
    17.3418  17.4486  17.4732  17.5692  17.6788  17.8515  17.9125  18.0702
    18.2218  18.3100  18.5507  19.0281  19.0559  19.4827  19.6585  19.7918
    19.8657  19.9455  20.0009  20.0932  20.1318  20.2843  20.4555  20.8817
    20.9929  21.0832  21.1406  21.3156  21.4431  21.5243  21.6278  21.7600
    22.0533  22.6173  22.6905  22.7273  22.8655  22.9618  22.9931  24.5061
    25.0356  25.5953  26.8536  27.8573  28.5846  29.4495  30.7958  31.7987
    32.4947  33.0675  33.9422  34.9339  35.1981  35.7379

          k = 0.2857-0.1427-0.0621 ( 15801 PWs)   bands (ev):

   -75.9547 -75.8890 -75.8167 -61.8536 -61.8533 -55.8563 -55.8459 -55.8239
   -44.3701 -44.3556 -44.3554 -44.3524 -44.3429 -44.3410 -44.3410 -44.2991
   -44.2884 -44.2882 -44.2753 -44.2703 -44.2691 -44.2690 -44.2215 -44.2134
   -44.2133 -44.1970 -44.1920 -44.1918 -44.1918 -30.0968 -30.0660 -30.0650
   -30.0628 -30.0168 -29.9891 -29.9457 -29.9073 -29.8641 -27.5802 -27.5780
   -27.5725 -27.5712 -27.5592 -27.5563 -23.8097 -23.7893 -23.7617 -23.7071
   -23.6917 -23.6887 -23.6289 -23.6165 -23.5819  15.3645  16.6268  17.1537
    17.2824  17.4192  17.4820  17.5593  17.6948  17.7855  17.8833  17.9554
    18.3201  18.5648  18.7293  18.9491  19.0624  19.3367  19.4361  19.6012
    19.6815  19.9547  20.0678  20.2083  20.3291  20.5405  20.6089  20.7174
    20.8254  20.9153  21.0503  21.5260  21.7214  21.7824  21.8930  21.9321
    22.2766  22.4640  22.4950  22.5251  22.8774  22.9442  23.0233  23.6419
    23.8391  26.5636  27.2405  27.8759  28.6332  29.9072  31.0805  31.4961
    32.6224  33.5611  34.2585  34.6417  35.4266  35.7673

          k = 0.4286 0.0000 0.0621 ( 15782 PWs)   bands (ev):

   -75.9546 -75.8886 -75.8172 -61.8536 -61.8533 -55.8555 -55.8458 -55.8248
   -44.3701 -44.3556 -44.3554 -44.3524 -44.3429 -44.3410 -44.3410 -44.2990
   -44.2884 -44.2882 -44.2753 -44.2703 -44.2690 -44.2690 -44.2215 -44.2134
   -44.2133 -44.1970 -44.1920 -44.1918 -44.1918 -30.0660 -30.0652 -30.0617
   -30.0235 -30.0200 -29.9868 -29.9430 -29.9394 -29.9097 -27.5790 -27.5770
   -27.5724 -27.5700 -27.5582 -27.5568 -23.8088 -23.8023 -23.7531 -23.7120
   -23.6954 -23.6899 -23.6311 -23.6127 -23.5816  16.1776  16.9546  17.4669
    17.6605  17.8052  17.8593  18.0470  18.1561  18.2602  18.2691  18.3655
    18.4921  18.5565  18.6312  18.7091  18.8535  19.0601  19.0901  19.1915
    19.4070  19.4636  19.5386  20.2065  20.4078  20.4798  20.5607  20.6887
    20.7161  20.8334  20.9009  21.0351  21.2992  21.3784  21.4767  21.5409
    21.6263  21.6506  21.7739  21.9645  22.2977  23.1134  23.2232  23.8038
    24.8441  24.9934  26.2525  29.8022  30.5501  31.0713  32.1257  32.4055
    32.6525  33.7170  34.0106  34.5340  34.7012  34.8204

          k = 0.4286 0.0001 0.1864 ( 15827 PWs)   bands (ev):

   -75.9546 -75.8886 -75.8172 -61.8536 -61.8533 -55.8555 -55.8458 -55.8248
   -44.3701 -44.3556 -44.3554 -44.3524 -44.3429 -44.3410 -44.3410 -44.2990
   -44.2884 -44.2882 -44.2753 -44.2703 -44.2690 -44.2690 -44.2215 -44.2134
   -44.2133 -44.1970 -44.1920 -44.1918 -44.1918 -30.0660 -30.0651 -30.0617
   -30.0235 -30.0200 -29.9868 -29.9430 -29.9394 -29.9097 -27.5792 -27.5770
   -27.5722 -27.5700 -27.5580 -27.5571 -23.8089 -23.8019 -23.7531 -23.7127
   -23.6951 -23.6899 -23.6313 -23.6127 -23.5812  16.4054  16.9313  17.2957
    17.7912  17.8847  17.9533  17.9769  18.0808  18.2121  18.2961  18.3530
    18.4969  18.5170  18.5380  18.6435  18.7932  18.7979  19.0660  19.2476
    19.2563  19.4420  19.5768  19.8786  19.9482  20.5366  20.6569  20.7048
    20.8339  20.9328  21.0950  21.2748  21.3876  21.5161  21.5662  21.6168
    21.7178  21.9803  22.1076  22.2323  22.6961  22.7539  22.8769  23.1918
    23.9670  26.1948  27.4492  27.9437  29.1881  31.2984  32.5087  32.8676
    33.0186  33.1659  33.4047  34.0314  34.3448  35.7687

          k = 0.4286-0.0001-0.1864 ( 15826 PWs)   bands (ev):

   -75.9546 -75.8886 -75.8172 -61.8536 -61.8533 -55.8555 -55.8458 -55.8248
   -44.3701 -44.3556 -44.3554 -44.3524 -44.3429 -44.3410 -44.3410 -44.2990
   -44.2884 -44.2882 -44.2753 -44.2703 -44.2690 -44.2690 -44.2215 -44.2134
   -44.2133 -44.1970 -44.1920 -44.1918 -44.1918 -30.0660 -30.0651 -30.0617
   -30.0235 -30.0200 -29.9868 -29.9430 -29.9394 -29.9097 -27.5792 -27.5770
   -27.5722 -27.5700 -27.5579 -27.5571 -23.8089 -23.8019 -23.7531 -23.7127
   -23.6951 -23.6899 -23.6313 -23.6127 -23.5812  16.4053  16.9315  17.2957
    17.7910  17.8849  17.9532  17.9769  18.0809  18.2122  18.2961  18.3529
    18.4969  18.5170  18.5380  18.6434  18.7932  18.7978  19.0661  19.2474
    19.2562  19.4421  19.5770  19.8786  19.9483  20.5366  20.6565  20.7048
    20.8338  20.9334  21.0950  21.2744  21.3876  21.5166  21.5662  21.6167
    21.7177  21.9804  22.1076  22.2323  22.6963  22.7539  22.8769  23.1920
    23.9665  26.1940  27.4502  27.9444  29.1872  31.2982  32.5090  32.8674
    33.0189  33.1661  33.4046  34.0312  34.3444  35.7683

          k = 0.4286-0.0000-0.0621 ( 15781 PWs)   bands (ev):

   -75.9546 -75.8886 -75.8172 -61.8536 -61.8533 -55.8555 -55.8458 -55.8248
   -44.3701 -44.3556 -44.3554 -44.3524 -44.3429 -44.3410 -44.3410 -44.2990
   -44.2884 -44.2882 -44.2753 -44.2703 -44.2690 -44.2690 -44.2215 -44.2134
   -44.2133 -44.1970 -44.1920 -44.1918 -44.1918 -30.0660 -30.0652 -30.0617
   -30.0235 -30.0200 -29.9868 -29.9430 -29.9394 -29.9097 -27.5790 -27.5770
   -27.5724 -27.5700 -27.5582 -27.5569 -23.8088 -23.8023 -23.7531 -23.7120
   -23.6954 -23.6899 -23.6311 -23.6127 -23.5816  16.1776  16.9546  17.4671
    17.6605  17.8052  17.8593  18.0468  18.1564  18.2599  18.2690  18.3657
    18.4920  18.5565  18.6312  18.7091  18.8536  19.0600  19.0900  19.1915
    19.4071  19.4636  19.5389  20.2062  20.4071  20.4802  20.5607  20.6884
    20.7167  20.8336  20.9008  21.0347  21.2990  21.3789  21.4769  21.5407
    21.6263  21.6507  21.7739  21.9645  22.2977  23.1134  23.2232  23.8042
    24.8435  24.9927  26.2533  29.8027  30.5500  31.0706  32.1254  32.4056
    32.6527  33.7172  34.0110  34.5336  34.7013  34.8202

          k = 0.4286 0.1427 0.0621 ( 15795 PWs)   bands (ev):

   -75.9546 -75.8885 -75.8172 -61.8536 -61.8533 -55.8543 -55.8458 -55.8260
   -44.3701 -44.3556 -44.3554 -44.3524 -44.3429 -44.3410 -44.3410 -44.2990
   -44.2884 -44.2882 -44.2753 -44.2703 -44.2691 -44.2690 -44.2215 -44.2134
   -44.2133 -44.1970 -44.1920 -44.1918 -44.1918 -30.0698 -30.0661 -30.0653
   -30.0627 -30.0293 -29.9868 -29.9341 -29.9099 -29.8935 -27.5804 -27.5772
   -27.5730 -27.5709 -27.5580 -27.5569 -23.8079 -23.8017 -23.7627 -23.7015
   -23.6943 -23.6895 -23.6313 -23.6175 -23.5764  16.3135  16.9640  17.1824
    17.5693  17.6586  17.7280  17.7828  17.9441  17.9703  18.3317  18.4016
    18.4995  18.7339  19.0282  19.0655  19.1194  19.2823  19.3913  19.4734
    19.5491  19.7487  19.8314  19.9127  20.0397  20.0932  20.3225  20.4384
    20.4899  20.5603  21.0561  21.1964  21.3198  21.4093  21.5824  21.9280
    21.9809  22.0173  22.1266  22.1412  22.6605  22.8692  22.9832  23.6877
    24.7831  24.9169  26.1749  28.7185  29.9421  30.2689  31.1330  31.6551
    32.5881  32.7808  33.5006  33.9402  34.3231  35.7602

          k = 0.4286 0.1428 0.1864 ( 15797 PWs)   bands (ev):

   -75.9546 -75.8885 -75.8172 -61.8536 -61.8533 -55.8543 -55.8457 -55.8260
   -44.3701 -44.3556 -44.3554 -44.3524 -44.3429 -44.3410 -44.3410 -44.2990
   -44.2884 -44.2882 -44.2753 -44.2703 -44.2691 -44.2690 -44.2215 -44.2134
   -44.2133 -44.1970 -44.1920 -44.1918 -44.1918 -30.0696 -30.0661 -30.0655
   -30.0627 -30.0293 -29.9868 -29.9341 -29.9099 -29.8935 -27.5800 -27.5777
   -27.5732 -27.5706 -27.5578 -27.5571 -23.8080 -23.8014 -23.7630 -23.7018
   -23.6940 -23.6897 -23.6314 -23.6173 -23.5765  16.4202  16.8243  17.1700
    17.5114  17.7984  17.8162  17.9221  17.9964  18.2228  18.2639  18.4351
    18.4986  18.6906  18.7580  18.8802  19.0315  19.2222  19.3371  19.4174
    19.4946  19.6234  19.6807  19.7623  19.8637  20.1725  20.3453  20.5230
    20.6544  20.7846  20.8302  21.0684  21.2636  21.4912  21.6609  22.1008
    22.2439  22.3430  22.4319  22.4837  22.6527  22.7482  22.8526  23.0953
    23.9102  26.2627  27.5042  28.1855  29.0618  29.5705  30.1752  30.6388
    31.6734  33.9454  35.1758  35.3947  35.6006  35.7318

          k = 0.4286 0.1426-0.1864 ( 15791 PWs)   bands (ev):

   -75.9546 -75.8885 -75.8172 -61.8536 -61.8533 -55.8543 -55.8457 -55.8260
   -44.3701 -44.3556 -44.3554 -44.3524 -44.3429 -44.3410 -44.3410 -44.2990
   -44.2884 -44.2882 -44.2753 -44.2703 -44.2691 -44.2690 -44.2215 -44.2134
   -44.2133 -44.1970 -44.1920 -44.1918 -44.1918 -30.0696 -30.0661 -30.0655
   -30.0627 -30.0293 -29.9868 -29.9341 -29.9099 -29.8935 -27.5799 -27.5778
   -27.5733 -27.5705 -27.5578 -27.5571 -23.8080 -23.8014 -23.7630 -23.7018
   -23.6940 -23.6897 -23.6314 -23.6173 -23.5765  16.4194  16.8249  17.1695
    17.5117  17.7994  17.8167  17.9224  17.9950  18.2230  18.2627  18.4352
    18.4995  18.6911  18.7584  18.8809  19.0317  19.2234  19.3370  19.4177
    19.4953  19.6237  19.6787  19.7614  19.8626  20.1714  20.3478  20.5214
    20.6533  20.7865  20.8294  21.0685  21.2637  21.4907  21.6604  22.1015
    22.2445  22.3418  22.4310  22.4837  22.6519  22.7493  22.8537  23.0951
    23.9101  26.2617  27.5052  28.1875  29.0615  29.5742  30.1720  30.6398
    31.6678  33.9547  35.1711  35.3971  35.5936  35.7349

          k = 0.4286 0.1426-0.0621 ( 15797 PWs)   bands (ev):

   -75.9546 -75.8885 -75.8172 -61.8536 -61.8533 -55.8543 -55.8458 -55.8260
   -44.3701 -44.3556 -44.3554 -44.3524 -44.3429 -44.3410 -44.3410 -44.2990
   -44.2884 -44.2882 -44.2753 -44.2703 -44.2691 -44.2690 -44.2215 -44.2134
   -44.2133 -44.1970 -44.1920 -44.1918 -44.1918 -30.0698 -30.0662 -30.0652
   -30.0627 -30.0293 -29.9868 -29.9341 -29.9099 -29.8935 -27.5803 -27.5772
   -27.5731 -27.5709 -27.5580 -27.5569 -23.8079 -23.8017 -23.7627 -23.7015
   -23.6944 -23.6895 -23.6313 -23.6175 -23.5764  16.3130  16.9641  17.1822
    17.5694  17.6588  17.7287  17.7826  17.9446  17.9698  18.3303  18.4016
    18.4997  18.7348  19.0292  19.0664  19.1207  19.2822  19.3912  19.4731
    19.5500  19.7481  19.8302  19.9114  20.0394  20.0935  20.3221  20.4371
    20.4889  20.5621  21.0560  21.1979  21.3199  21.4090  21.5819  21.9272
    21.9803  22.0174  22.1267  22.1406  22.6604  22.8699  22.9839  23.6877
    24.7828  24.9164  26.1759  28.7196  29.9441  30.2706  31.1282  31.6560
    32.5866  32.7824  33.4975  33.9393  34.3287  35.7588

          k = 0.4286 0.2854 0.0621 ( 15806 PWs)   bands (ev):

   -75.9546 -75.8885 -75.8172 -61.8536 -61.8533 -55.8510 -55.8457 -55.8292
   -44.3701 -44.3556 -44.3554 -44.3524 -44.3429 -44.3410 -44.3410 -44.2991
   -44.2884 -44.2882 -44.2753 -44.2703 -44.2691 -44.2690 -44.2215 -44.2134
   -44.2133 -44.1970 -44.1920 -44.1918 -44.1918 -30.1081 -30.0781 -30.0667
   -30.0664 -30.0649 -29.9868 -29.9103 -29.8863 -29.8552 -27.5830 -27.5779
   -27.5748 -27.5728 -27.5576 -27.5569 -23.8059 -23.8005 -23.7773 -23.6925
   -23.6884 -23.6846 -23.6317 -23.6257 -23.5679  16.4381  16.7652  16.9770
    17.0876  17.1333  17.6644  17.9645  18.1487  18.3228  18.4042  18.6080
    18.6758  18.8622  18.9800  19.2086  19.2256  19.3634  19.4218  19.5843
    19.6165  19.7120  19.8281  19.9368  20.0456  20.4655  20.5496  20.6661
    20.7910  20.8547  20.9726  21.1316  21.1817  21.2621  21.7422  22.0994
    22.2769  22.4156  22.5796  22.6583  22.7338  22.7889  23.3114  23.7579
    24.5171  24.6580  25.6455  26.5935  27.8523  29.2563  30.5963  31.0572
    31.3871  32.3104  32.6941  34.0365  34.9659  35.4673

          k = 0.4286 0.2854 0.1864 ( 15809 PWs)   bands (ev):

   -75.9546 -75.8885 -75.8172 -61.8536 -61.8533 -55.8510 -55.8457 -55.8292
   -44.3701 -44.3556 -44.3554 -44.3524 -44.3429 -44.3410 -44.3410 -44.2991
   -44.2884 -44.2882 -44.2753 -44.2703 -44.2691 -44.2690 -44.2215 -44.2134
   -44.2133 -44.1970 -44.1920 -44.1918 -44.1918 -30.1080 -30.0781 -30.0667
   -30.0662 -30.0650 -29.9869 -29.9103 -29.8863 -29.8552 -27.5817 -27.5793
   -27.5757 -27.5718 -27.5575 -27.5570 -23.8060 -23.8003 -23.7778 -23.6917
   -23.6890 -23.6841 -23.6318 -23.6253 -23.5684  16.4170  16.7459  16.9328
    17.2307  17.3702  17.4804  17.7202  17.7587  18.4661  18.5575  18.7543
    18.8676  18.9926  19.1097  19.2404  19.4034  19.5345  19.6084  19.6901
    19.7454  19.8882  19.9137  19.9674  20.1110  20.1489  20.1970  20.2784
    20.3398  20.4138  20.5699  20.6548  20.8263  21.7169  22.2319  22.2873
    22.5365  22.6121  22.6408  22.7034  22.7669  22.8341  22.8769  23.6572
    23.9567  26.2064  26.5157  26.7297  27.7525  29.1190  29.3241  29.8826
    30.8380  32.1167  33.5194  33.7383  35.1977  36.4984

          k = 0.4286 0.2852-0.1864 ( 15809 PWs)   bands (ev):

   -75.9546 -75.8885 -75.8172 -61.8536 -61.8533 -55.8510 -55.8457 -55.8292
   -44.3701 -44.3556 -44.3554 -44.3524 -44.3429 -44.3410 -44.3410 -44.2991
   -44.2884 -44.2882 -44.2753 -44.2703 -44.2691 -44.2690 -44.2215 -44.2134
   -44.2133 -44.1970 -44.1920 -44.1918 -44.1918 -30.1080 -30.0781 -30.0666
   -30.0663 -30.0650 -29.9869 -29.9103 -29.8863 -29.8552 -27.5816 -27.5794
   -27.5757 -27.5718 -27.5575 -27.5570 -23.8060 -23.8003 -23.7778 -23.6917
   -23.6890 -23.6841 -23.6318 -23.6253 -23.5684  16.4173  16.7458  16.9329
    17.2309  17.3711  17.4805  17.7185  17.7572  18.4644  18.5566  18.7568
    18.8680  18.9941  19.1109  19.2405  19.4028  19.5342  19.6078  19.6926
    19.7461  19.8873  19.9143  19.9680  20.1091  20.1472  20.1969  20.2780
    20.3387  20.4124  20.5710  20.6561  20.8280  21.7168  22.2326  22.2868
    22.5373  22.6126  22.6421  22.7026  22.7662  22.8326  22.8755  23.6567
    23.9579  26.2052  26.5153  26.7302  27.7524  29.1156  29.3268  29.8817
    30.8407  32.1245  33.5211  33.7369  35.1874  36.4899

          k = 0.4286 0.2853-0.0621 ( 15803 PWs)   bands (ev):

   -75.9546 -75.8885 -75.8172 -61.8536 -61.8533 -55.8510 -55.8457 -55.8292
   -44.3701 -44.3556 -44.3554 -44.3524 -44.3429 -44.3410 -44.3410 -44.2991
   -44.2884 -44.2882 -44.2753 -44.2703 -44.2691 -44.2690 -44.2215 -44.2134
   -44.2133 -44.1970 -44.1920 -44.1918 -44.1918 -30.1081 -30.0781 -30.0666
   -30.0665 -30.0649 -29.9868 -29.9103 -29.8863 -29.8552 -27.5829 -27.5780
   -27.5749 -27.5728 -27.5576 -27.5569 -23.8059 -23.8005 -23.7772 -23.6925
   -23.6884 -23.6846 -23.6317 -23.6258 -23.5679  16.4384  16.7654  16.9767
    17.0878  17.1337  17.6634  17.9636  18.1474  18.3227  18.4036  18.6075
    18.6764  18.8631  18.9812  19.2110  19.2280  19.3641  19.4216  19.5829
    19.6172  19.7109  19.8281  19.9346  20.0439  20.4653  20.5496  20.6674
    20.7896  20.8563  20.9729  21.1328  21.1821  21.2625  21.7414  22.1001
    22.2776  22.4160  22.5786  22.6569  22.7328  22.7891  23.3111  23.7577
    24.5168  24.6585  25.6453  26.5937  27.8524  29.2532  30.5920  31.0617
    31.3926  32.3166  32.6998  34.0293  34.9591  35.4590

          k = 0.4286 0.4280 0.0621 ( 15791 PWs)   bands (ev):

   -75.9546 -75.8884 -75.8172 -61.8535 -61.8532 -55.8473 -55.8458 -55.8327
   -44.3701 -44.3556 -44.3554 -44.3524 -44.3429 -44.3410 -44.3410 -44.2991
   -44.2884 -44.2882 -44.2753 -44.2703 -44.2691 -44.2690 -44.2215 -44.2134
   -44.2133 -44.1970 -44.1920 -44.1918 -44.1918 -30.1240 -30.1131 -30.0674
   -30.0671 -30.0666 -29.9867 -29.9106 -29.8512 -29.8399 -27.5849 -27.5786
   -27.5765 -27.5742 -27.5573 -27.5569 -23.8031 -23.8005 -23.7863 -23.6910
   -23.6871 -23.6732 -23.6325 -23.6311 -23.5625  16.3235  16.4856  16.7997
    16.8217  17.2885  17.7198  18.1116  18.1230  18.6569  18.7461  18.8871
    18.9032  18.9925  19.0915  19.1870  19.2113  19.3357  19.3826  19.4899
    19.5971  19.6266  19.6565  19.7079  19.7910  20.3752  20.6679  20.8233
    20.8500  21.1294  21.5483  21.6055  21.6841  21.7183  21.7890  21.9360
    22.3230  22.7153  22.7401  22.7891  22.9004  22.9489  23.7598  24.0758
    24.1163  24.3155  24.9388  25.0162  26.2644  28.4902  29.5869  30.5071
    31.0445  32.5107  33.6641  34.0905  34.8157  35.3765

          k = 0.4286 0.4281 0.1864 ( 15798 PWs)   bands (ev):

   -75.9546 -75.8884 -75.8172 -61.8535 -61.8532 -55.8473 -55.8458 -55.8327
   -44.3701 -44.3556 -44.3554 -44.3524 -44.3429 -44.3410 -44.3410 -44.2991
   -44.2884 -44.2882 -44.2753 -44.2703 -44.2691 -44.2690 -44.2215 -44.2134
   -44.2133 -44.1970 -44.1920 -44.1918 -44.1918 -30.1239 -30.1131 -30.0674
   -30.0671 -30.0665 -29.9869 -29.9106 -29.8512 -29.8399 -27.5831 -27.5804
   -27.5778 -27.5729 -27.5573 -27.5569 -23.8031 -23.8004 -23.7869 -23.6900
   -23.6882 -23.6722 -23.6326 -23.6310 -23.5632  16.4462  16.6247  16.8947
    17.0322  17.0832  17.3494  17.5169  17.5663  18.7533  18.8231  18.9848
    19.1730  19.2430  19.2889  19.4570  19.5290  19.5420  19.6802  19.7624
    19.7675  19.8273  19.9092  20.0124  20.0298  20.1925  20.3051  20.3700
    20.4379  20.8003  20.8832  20.9472  21.1074  21.6938  22.0763  22.1745
    22.3149  22.4793  22.6517  22.7571  22.8033  23.1292  23.5701  24.4135
    24.6604  24.8035  24.9356  25.5051  26.1717  29.0819  29.7406  30.4838
    31.1752  31.6244  32.1377  32.4716  33.6112  37.1725

          k = 0.4286 0.4279-0.1864 ( 15797 PWs)   bands (ev):

   -75.9546 -75.8884 -75.8172 -61.8535 -61.8532 -55.8473 -55.8458 -55.8327
   -44.3701 -44.3556 -44.3554 -44.3524 -44.3429 -44.3410 -44.3410 -44.2991
   -44.2884 -44.2882 -44.2753 -44.2703 -44.2691 -44.2690 -44.2215 -44.2134
   -44.2133 -44.1970 -44.1920 -44.1918 -44.1918 -30.1239 -30.1131 -30.0674
   -30.0671 -30.0665 -29.9869 -29.9106 -29.8512 -29.8399 -27.5831 -27.5804
   -27.5778 -27.5729 -27.5573 -27.5569 -23.8031 -23.8004 -23.7868 -23.6900
   -23.6881 -23.6722 -23.6326 -23.6310 -23.5632  16.4468  16.6249  16.8942
    17.0327  17.0832  17.3493  17.5162  17.5656  18.7519  18.8225  18.9868
    19.1712  19.2457  19.2902  19.4582  19.5266  19.5445  19.6779  19.7614
    19.7662  19.8277  19.9072  20.0126  20.0292  20.1937  20.3052  20.3712
    20.4392  20.8015  20.8835  20.9451  21.1095  21.6936  22.0774  22.1752
    22.3161  22.4795  22.6503  22.7553  22.8016  23.1287  23.5706  24.4143
    24.6610  24.8032  24.9354  25.5038  26.1716  29.0780  29.7408  30.4892
    31.1753  31.6261  32.1437  32.4713  33.6023  37.1623

          k = 0.4286 0.4280-0.0621 ( 15791 PWs)   bands (ev):

   -75.9546 -75.8884 -75.8172 -61.8535 -61.8532 -55.8473 -55.8458 -55.8327
   -44.3701 -44.3556 -44.3554 -44.3524 -44.3429 -44.3410 -44.3410 -44.2991
   -44.2884 -44.2882 -44.2753 -44.2703 -44.2691 -44.2690 -44.2215 -44.2134
   -44.2133 -44.1970 -44.1920 -44.1918 -44.1918 -30.1240 -30.1131 -30.0674
   -30.0671 -30.0666 -29.9867 -29.9106 -29.8512 -29.8399 -27.5849 -27.5786
   -27.5766 -27.5742 -27.5573 -27.5569 -23.8031 -23.8005 -23.7863 -23.6910
   -23.6871 -23.6732 -23.6325 -23.6312 -23.5625  16.3238  16.4857  16.7997
    16.8219  17.2882  17.7196  18.1112  18.1221  18.6557  18.7453  18.8875
    18.9035  18.9931  19.0912  19.1881  19.2121  19.3374  19.3846  19.4886
    19.5975  19.6265  19.6558  19.7072  19.7891  20.3745  20.6676  20.8245
    20.8508  21.1300  21.5485  21.6059  21.6844  21.7181  21.7882  21.9364
    22.3263  22.7166  22.7397  22.7876  22.8986  22.9469  23.7599  24.0766
    24.1143  24.3162  24.9387  25.0161  26.2643  28.4898  29.5844  30.5074
    31.0487  32.5191  33.6638  34.0899  34.8056  35.3693

          k = 0.4286-0.4280 0.0621 ( 15792 PWs)   bands (ev):

   -75.9546 -75.8884 -75.8172 -61.8535 -61.8532 -55.8473 -55.8458 -55.8327
   -44.3701 -44.3556 -44.3554 -44.3524 -44.3429 -44.3410 -44.3410 -44.2991
   -44.2884 -44.2882 -44.2753 -44.2703 -44.2691 -44.2690 -44.2215 -44.2134
   -44.2133 -44.1970 -44.1920 -44.1918 -44.1918 -30.1240 -30.1131 -30.0674
   -30.0671 -30.0666 -29.9867 -29.9106 -29.8512 -29.8399 -27.5849 -27.5786
   -27.5766 -27.5742 -27.5573 -27.5569 -23.8031 -23.8005 -23.7863 -23.6910
   -23.6871 -23.6732 -23.6325 -23.6311 -23.5625  16.3237  16.4857  16.7997
    16.8219  17.2882  17.7196  18.1112  18.1222  18.6559  18.7454  18.8872
    18.9038  18.9930  19.0912  19.1879  19.2121  19.3373  19.3845  19.4888
    19.5974  19.6264  19.6558  19.7072  19.7894  20.3747  20.6678  20.8244
    20.8506  21.1300  21.5483  21.6057  21.6845  21.7182  21.7884  21.9362
    22.3259  22.7165  22.7396  22.7877  22.8988  22.9471  23.7599  24.0765
    24.1144  24.3162  24.9389  25.0163  26.2641  28.4899  29.5845  30.5075
    31.0481  32.5184  33.6639  34.0900  34.8065  35.3698

          k = 0.4286-0.4279 0.1864 ( 15796 PWs)   bands (ev):

   -75.9546 -75.8884 -75.8172 -61.8535 -61.8532 -55.8473 -55.8458 -55.8327
   -44.3701 -44.3556 -44.3554 -44.3524 -44.3429 -44.3410 -44.3410 -44.2991
   -44.2884 -44.2882 -44.2753 -44.2703 -44.2691 -44.2690 -44.2215 -44.2134
   -44.2133 -44.1970 -44.1920 -44.1918 -44.1918 -30.1239 -30.1130 -30.0675
   -30.0671 -30.0665 -29.9869 -29.9106 -29.8512 -29.8399 -27.5831 -27.5804
   -27.5778 -27.5729 -27.5573 -27.5569 -23.8031 -23.8004 -23.7868 -23.6900
   -23.6881 -23.6722 -23.6326 -23.6310 -23.5632  16.4467  16.6249  16.8943
    17.0326  17.0832  17.3493  17.5162  17.5656  18.7521  18.8226  18.9865
    19.1717  19.2452  19.2902  19.4580  19.5266  19.5443  19.6781  19.7613
    19.7662  19.8279  19.9076  20.0125  20.0293  20.1935  20.3053  20.3713
    20.4389  20.8013  20.8836  20.9452  21.1093  21.6937  22.0773  22.1751
    22.3157  22.4798  22.6504  22.7555  22.8016  23.1286  23.5705  24.4143
    24.6611  24.8033  24.9356  25.5038  26.1715  29.0783  29.7408  30.4886
    31.1756  31.6257  32.1433  32.4714  33.6029  37.1631

          k = 0.4286-0.4281-0.1864 ( 15798 PWs)   bands (ev):

   -75.9546 -75.8884 -75.8172 -61.8535 -61.8532 -55.8473 -55.8458 -55.8327
   -44.3701 -44.3556 -44.3554 -44.3524 -44.3429 -44.3410 -44.3410 -44.2991
   -44.2884 -44.2882 -44.2753 -44.2703 -44.2691 -44.2690 -44.2215 -44.2134
   -44.2133 -44.1970 -44.1920 -44.1918 -44.1918 -30.1239 -30.1130 -30.0675
   -30.0671 -30.0665 -29.9869 -29.9106 -29.8512 -29.8399 -27.5831 -27.5804
   -27.5778 -27.5729 -27.5573 -27.5569 -23.8031 -23.8004 -23.7869 -23.6899
   -23.6882 -23.6722 -23.6326 -23.6310 -23.5632  16.4462  16.6248  16.8946
    17.0322  17.0832  17.3494  17.5169  17.5662  18.7531  18.8231  18.9851
    19.1726  19.2435  19.2889  19.4570  19.5288  19.5422  19.6800  19.7625
    19.7676  19.8271  19.9089  20.0125  20.0298  20.1927  20.3049  20.3698
    20.4382  20.8004  20.8832  20.9470  21.1076  21.6938  22.0763  22.1745
    22.3153  22.4790  22.6516  22.7569  22.8032  23.1291  23.5700  24.4137
    24.6605  24.8036  24.9357  25.5049  26.1715  29.0816  29.7406  30.4843
    31.1751  31.6248  32.1379  32.4718  33.6104  37.1715

          k = 0.4286-0.4280-0.0621 ( 15791 PWs)   bands (ev):

   -75.9546 -75.8884 -75.8172 -61.8535 -61.8532 -55.8473 -55.8458 -55.8327
   -44.3701 -44.3556 -44.3554 -44.3524 -44.3429 -44.3410 -44.3410 -44.2991
   -44.2884 -44.2882 -44.2753 -44.2703 -44.2691 -44.2690 -44.2215 -44.2134
   -44.2133 -44.1970 -44.1920 -44.1918 -44.1918 -30.1240 -30.1131 -30.0674
   -30.0671 -30.0666 -29.9867 -29.9106 -29.8512 -29.8399 -27.5849 -27.5786
   -27.5765 -27.5742 -27.5573 -27.5569 -23.8031 -23.8005 -23.7863 -23.6910
   -23.6871 -23.6732 -23.6325 -23.6311 -23.5625  16.3235  16.4856  16.7997
    16.8217  17.2884  17.7198  18.1115  18.1229  18.6568  18.7460  18.8875
    18.9030  18.9926  19.0916  19.1870  19.2113  19.3358  19.3826  19.4895
    19.5972  19.6269  19.6564  19.7080  19.7908  20.3753  20.6678  20.8233
    20.8502  21.1295  21.5485  21.6056  21.6840  21.7181  21.7887  21.9362
    22.3232  22.7153  22.7401  22.7890  22.9002  22.9488  23.7597  24.0759
    24.1161  24.3157  24.9389  25.0164  26.2642  28.4902  29.5866  30.5073
    31.0447  32.5113  33.6642  34.0906  34.8147  35.3758

          k = 0.4286-0.2853 0.0621 ( 15803 PWs)   bands (ev):

   -75.9546 -75.8885 -75.8172 -61.8536 -61.8533 -55.8510 -55.8457 -55.8292
   -44.3701 -44.3556 -44.3554 -44.3524 -44.3429 -44.3410 -44.3410 -44.2991
   -44.2884 -44.2882 -44.2753 -44.2703 -44.2691 -44.2690 -44.2215 -44.2134
   -44.2133 -44.1970 -44.1920 -44.1918 -44.1918 -30.1081 -30.0781 -30.0666
   -30.0665 -30.0649 -29.9868 -29.9103 -29.8863 -29.8552 -27.5830 -27.5780
   -27.5749 -27.5728 -27.5576 -27.5569 -23.8059 -23.8005 -23.7772 -23.6925
   -23.6884 -23.6846 -23.6317 -23.6257 -23.5679  16.4383  16.7654  16.9767
    17.0877  17.1337  17.6634  17.9636  18.1474  18.3227  18.4036  18.6075
    18.6762  18.8632  18.9811  19.2111  19.2278  19.3637  19.4220  19.5829
    19.6171  19.7110  19.8279  19.9346  20.0441  20.4657  20.5496  20.6677
    20.7895  20.8560  20.9729  21.1325  21.1822  21.2624  21.7413  22.1003
    22.2774  22.4162  22.5785  22.6570  22.7328  22.7890  23.3108  23.7579
    24.5172  24.6590  25.6447  26.5939  27.8522  29.2531  30.5919  31.0620
    31.3922  32.3160  32.7005  34.0300  34.9583  35.4585

          k = 0.4286-0.2852 0.1864 ( 15809 PWs)   bands (ev):

   -75.9546 -75.8885 -75.8172 -61.8536 -61.8533 -55.8510 -55.8457 -55.8292
   -44.3701 -44.3556 -44.3554 -44.3524 -44.3429 -44.3410 -44.3410 -44.2991
   -44.2884 -44.2882 -44.2753 -44.2703 -44.2691 -44.2690 -44.2215 -44.2134
   -44.2133 -44.1970 -44.1920 -44.1918 -44.1918 -30.1080 -30.0781 -30.0666
   -30.0663 -30.0650 -29.9869 -29.9103 -29.8863 -29.8552 -27.5816 -27.5794
   -27.5757 -27.5718 -27.5575 -27.5570 -23.8060 -23.8003 -23.7778 -23.6918
   -23.6890 -23.6841 -23.6318 -23.6253 -23.5684  16.4173  16.7459  16.9329
    17.2309  17.3711  17.4805  17.7186  17.7573  18.4645  18.5566  18.7566
    18.8681  18.9939  19.1109  19.2406  19.4030  19.5341  19.6078  19.6926
    19.7460  19.8872  19.9143  19.9681  20.1093  20.1474  20.1970  20.2781
    20.3384  20.4124  20.5710  20.6560  20.8279  21.7169  22.2328  22.2865
    22.5375  22.6126  22.6417  22.7026  22.7662  22.8327  22.8756  23.6568
    23.9580  26.2056  26.5151  26.7304  27.7522  29.1152  29.3263  29.8820
    30.8413  32.1251  33.5204  33.7363  35.1880  36.4907

          k = 0.4286-0.2854-0.1864 ( 15809 PWs)   bands (ev):

   -75.9546 -75.8885 -75.8172 -61.8536 -61.8533 -55.8510 -55.8457 -55.8292
   -44.3701 -44.3556 -44.3554 -44.3524 -44.3429 -44.3410 -44.3410 -44.2991
   -44.2884 -44.2882 -44.2753 -44.2703 -44.2691 -44.2690 -44.2215 -44.2134
   -44.2133 -44.1970 -44.1920 -44.1918 -44.1918 -30.1080 -30.0781 -30.0667
   -30.0662 -30.0650 -29.9869 -29.9103 -29.8863 -29.8552 -27.5817 -27.5793
   -27.5757 -27.5718 -27.5575 -27.5570 -23.8060 -23.8003 -23.7778 -23.6917
   -23.6890 -23.6841 -23.6318 -23.6253 -23.5684  16.4170  16.7458  16.9328
    17.2308  17.3702  17.4804  17.7201  17.7586  18.4661  18.5575  18.7544
    18.8675  18.9927  19.1097  19.2403  19.4033  19.5345  19.6085  19.6902
    19.7456  19.8882  19.9137  19.9673  20.1109  20.1487  20.1970  20.2783
    20.3401  20.4138  20.5699  20.6549  20.8265  21.7170  22.2318  22.2876
    22.5363  22.6120  22.6411  22.7035  22.7669  22.8340  22.8769  23.6572
    23.9566  26.2059  26.5161  26.7298  27.7524  29.1196  29.3244  29.8822
    30.8375  32.1163  33.5200  33.7390  35.1968  36.4975

          k = 0.4286-0.2854-0.0621 ( 15806 PWs)   bands (ev):

   -75.9546 -75.8885 -75.8172 -61.8536 -61.8533 -55.8510 -55.8457 -55.8292
   -44.3701 -44.3556 -44.3554 -44.3524 -44.3429 -44.3410 -44.3410 -44.2991
   -44.2884 -44.2882 -44.2753 -44.2703 -44.2691 -44.2690 -44.2215 -44.2134
   -44.2133 -44.1970 -44.1920 -44.1918 -44.1918 -30.1081 -30.0781 -30.0667
   -30.0664 -30.0649 -29.9868 -29.9103 -29.8863 -29.8552 -27.5830 -27.5779
   -27.5748 -27.5728 -27.5576 -27.5569 -23.8059 -23.8005 -23.7773 -23.6925
   -23.6884 -23.6846 -23.6317 -23.6257 -23.5679  16.4381  16.7651  16.9770
    17.0876  17.1334  17.6644  17.9644  18.1487  18.3228  18.4041  18.6080
    18.6759  18.8622  18.9800  19.2085  19.2257  19.3639  19.4215  19.5843
    19.6166  19.7119  19.8283  19.9369  20.0455  20.4653  20.5495  20.6659
    20.7912  20.8549  20.9727  21.1319  21.1817  21.2622  21.7422  22.0991
    22.2771  22.4154  22.5798  22.6582  22.7338  22.7889  23.3118  23.7579
    24.5166  24.6575  25.6460  26.5937  27.8521  29.2566  30.5961  31.0571
    31.3874  32.3107  32.6935  34.0357  34.9669  35.4679

          k = 0.4286-0.1426 0.0621 ( 15795 PWs)   bands (ev):

   -75.9546 -75.8885 -75.8172 -61.8536 -61.8533 -55.8543 -55.8458 -55.8260
   -44.3701 -44.3556 -44.3554 -44.3524 -44.3429 -44.3410 -44.3410 -44.2990
   -44.2884 -44.2882 -44.2753 -44.2703 -44.2691 -44.2690 -44.2215 -44.2134
   -44.2133 -44.1970 -44.1920 -44.1918 -44.1918 -30.0698 -30.0662 -30.0652
   -30.0627 -30.0293 -29.9868 -29.9341 -29.9099 -29.8935 -27.5803 -27.5772
   -27.5731 -27.5709 -27.5580 -27.5569 -23.8079 -23.8017 -23.7627 -23.7015
   -23.6943 -23.6895 -23.6313 -23.6175 -23.5764  16.3130  16.9640  17.1822
    17.5694  17.6589  17.7285  17.7826  17.9446  17.9698  18.3305  18.4016
    18.4997  18.7347  19.0292  19.0664  19.1208  19.2821  19.3911  19.4730
    19.5502  19.7479  19.8301  19.9117  20.0394  20.0936  20.3218  20.4372
    20.4890  20.5624  21.0558  21.1978  21.3196  21.4092  21.5821  21.9268
    21.9804  22.0175  22.1264  22.1408  22.6605  22.8699  22.9839  23.6873
    24.7834  24.9170  26.1751  28.7198  29.9438  30.2700  31.1283  31.6567
    32.5868  32.7829  33.4977  33.9389  34.3280  35.7586

          k = 0.4286-0.1426 0.1864 ( 15791 PWs)   bands (ev):

   -75.9546 -75.8885 -75.8172 -61.8536 -61.8533 -55.8543 -55.8457 -55.8260
   -44.3701 -44.3556 -44.3554 -44.3524 -44.3429 -44.3410 -44.3410 -44.2990
   -44.2884 -44.2882 -44.2753 -44.2703 -44.2691 -44.2690 -44.2215 -44.2134
   -44.2133 -44.1970 -44.1920 -44.1918 -44.1918 -30.0696 -30.0661 -30.0655
   -30.0627 -30.0293 -29.9868 -29.9341 -29.9099 -29.8935 -27.5799 -27.5778
   -27.5733 -27.5705 -27.5578 -27.5571 -23.8080 -23.8014 -23.7630 -23.7018
   -23.6940 -23.6897 -23.6314 -23.6173 -23.5765  16.4194  16.8248  17.1695
    17.5117  17.7992  17.8166  17.9225  17.9950  18.2230  18.2628  18.4352
    18.4995  18.6911  18.7584  18.8809  19.0316  19.2235  19.3372  19.4174
    19.4953  19.6237  19.6788  19.7612  19.8626  20.1714  20.3479  20.5214
    20.6536  20.7861  20.8296  21.0684  21.2637  21.4908  21.6604  22.1016
    22.2443  22.3418  22.4310  22.4839  22.6518  22.7494  22.8536  23.0949
    23.9105  26.2624  27.5043  28.1869  29.0619  29.5750  30.1719  30.6396
    31.6678  33.9554  35.1709  35.3965  35.5933  35.7346

          k = 0.4286-0.1428-0.1864 ( 15796 PWs)   bands (ev):

   -75.9546 -75.8885 -75.8172 -61.8536 -61.8533 -55.8543 -55.8457 -55.8260
   -44.3701 -44.3556 -44.3554 -44.3524 -44.3429 -44.3410 -44.3410 -44.2990
   -44.2884 -44.2882 -44.2753 -44.2703 -44.2691 -44.2690 -44.2215 -44.2134
   -44.2133 -44.1970 -44.1920 -44.1918 -44.1918 -30.0696 -30.0661 -30.0655
   -30.0627 -30.0293 -29.9868 -29.9341 -29.9099 -29.8935 -27.5800 -27.5777
   -27.5732 -27.5706 -27.5578 -27.5571 -23.8080 -23.8014 -23.7630 -23.7018
   -23.6940 -23.6897 -23.6314 -23.6173 -23.5765  16.4201  16.8244  17.1700
    17.5114  17.7985  17.8162  17.9221  17.9963  18.2228  18.2638  18.4352
    18.4986  18.6905  18.7580  18.8803  19.0315  19.2222  19.3368  19.4177
    19.4945  19.6234  19.6805  19.7625  19.8638  20.1723  20.3451  20.5232
    20.6541  20.7851  20.8301  21.0684  21.2636  21.4912  21.6609  22.1008
    22.2442  22.3430  22.4320  22.4836  22.6529  22.7481  22.8527  23.0954
    23.9098  26.2619  27.5051  28.1862  29.0616  29.5699  30.1754  30.6388
    31.6730  33.9450  35.1757  35.3951  35.6010  35.7320

          k = 0.4286-0.1427-0.0621 ( 15796 PWs)   bands (ev):

   -75.9546 -75.8885 -75.8172 -61.8536 -61.8533 -55.8543 -55.8458 -55.8260
   -44.3701 -44.3556 -44.3554 -44.3524 -44.3429 -44.3410 -44.3410 -44.2990
   -44.2884 -44.2882 -44.2753 -44.2703 -44.2691 -44.2690 -44.2215 -44.2134
   -44.2133 -44.1970 -44.1920 -44.1918 -44.1918 -30.0698 -30.0661 -30.0653
   -30.0627 -30.0293 -29.9868 -29.9341 -29.9099 -29.8935 -27.5804 -27.5772
   -27.5730 -27.5709 -27.5580 -27.5569 -23.8079 -23.8017 -23.7627 -23.7015
   -23.6943 -23.6895 -23.6313 -23.6175 -23.5764  16.3134  16.9641  17.1824
    17.5692  17.6585  17.7281  17.7828  17.9440  17.9703  18.3316  18.4015
    18.4995  18.7340  19.0281  19.0655  19.1193  19.2825  19.3915  19.4735
    19.5490  19.7489  19.8316  19.9124  20.0397  20.0930  20.3227  20.4384
    20.4898  20.5601  21.0563  21.1965  21.3202  21.4091  21.5822  21.9283
    21.9808  22.0172  22.1269  22.1410  22.6605  22.8692  22.9832  23.6881
    24.7825  24.9163  26.1757  28.7187  29.9420  30.2693  31.1332  31.6545
    32.5879  32.7804  33.5005  33.9405  34.3235  35.7602

     the Fermi energy is    22.7065 ev

!    total energy              =   -4255.74337741 Ry
     estimated scf accuracy    <          6.7E-09 Ry
     smearing contrib. (-TS)   =      -0.00627348 Ry
     internal energy E=F+TS    =   -4255.73710393 Ry

     The total energy is F=E-TS. E is the sum of the following terms:
     one-electron contribution =   -2667.39034162 Ry
     hartree contribution      =    1449.62029311 Ry
     xc contribution           =    -341.83763497 Ry
     ewald contribution        =   -2696.12942044 Ry

     convergence has been achieved in  19 iterations

     Forces acting on atoms (cartesian axes, Ry/au):

     atom    1 type  1   force =    -0.00008399    0.00002634   -0.00579538
     atom    2 type  1   force =     0.00007446   -0.00002659    0.00519826
     atom    3 type  2   force =     0.00002881    0.00010850    0.00024757
     atom    4 type  2   force =     0.00016919    0.00003282    0.00019334
     atom    5 type  2   force =    -0.00005774   -0.00011214    0.00034478
     atom    6 type  3   force =    -0.00005157    0.00007686    0.00270900
     atom    7 type  3   force =    -0.00010274   -0.00005669    0.00019583
     atom    8 type  3   force =     0.00002357   -0.00004909   -0.00309340

     Total force =     0.008824     Total SCF correction =     0.000095


     Computing stress (Cartesian axis) and pressure

          total   stress  (Ry/bohr**3)                   (kbar)     P=      -16.84
  -0.00010131   0.00000008   0.00000030          -14.90        0.01        0.04
   0.00000008  -0.00011276   0.00000335            0.01      -16.59        0.49
   0.00000030   0.00000335  -0.00012943            0.04        0.49      -19.04


     Writing all to output data dir /home/tenant3/nexus-mat/dft/runs/dft-paper-worker-04/jobs/Pt-Pd-Rh-02_Pd2Pt3Rh3/tmp/Pt-Pd-Rh-02_Pd2Pt3Rh3.save/ :
     XML data file, charge density, pseudopotentials, collected wavefunctions

     init_run     :    332.95s CPU    337.70s WALL (       1 calls)
     electrons    :  19946.14s CPU  20048.97s WALL (       1 calls)
     forces       :    236.32s CPU    236.90s WALL (       1 calls)
     stress       :    765.26s CPU    768.01s WALL (       1 calls)

     Called by init_run:
     wfcinit      :    328.17s CPU    329.83s WALL (       1 calls)
     potinit      :      0.64s CPU      1.36s WALL (       1 calls)
     hinit0       :      0.83s CPU      1.71s WALL (       1 calls)

     Called by electrons:
     c_bands      :  18088.70s CPU  18167.19s WALL (      19 calls)
     sum_band     :   1795.72s CPU   1808.92s WALL (      19 calls)
     v_of_rho     :      5.66s CPU      6.52s WALL (      20 calls)
     newd         :     58.00s CPU     69.99s WALL (      20 calls)
     mix_rho      :      1.02s CPU      1.02s WALL (      19 calls)

     Called by c_bands:
     init_us_2    :     37.94s CPU     37.97s WALL (    4018 calls)
     cegterg      :  17959.06s CPU  18037.16s WALL (    1862 calls)

     Called by *egterg:
     cdiaghg      :     68.67s CPU     68.69s WALL (    5500 calls)
     h_psi        :   6771.23s CPU   6792.39s WALL (    5598 calls)
     s_psi        :   2310.12s CPU   2310.42s WALL (    5598 calls)
     g_psi        :      9.93s CPU      9.94s WALL (    3638 calls)

     Called by h_psi:
     h_psi:calbec :   2825.25s CPU   2825.60s WALL (    5598 calls)
     vloc_psi     :   1620.27s CPU   1621.69s WALL (    5598 calls)
                                        0.00s GPU  (    5598 calls)
     add_vuspsi   :   2310.25s CPU   2310.56s WALL (    5598 calls)

     General routines
     calbec       :   5046.36s CPU   5046.94s WALL (    9126 calls)
     fft          :      4.25s CPU      4.57s WALL (     283 calls)
     ffts         :      0.12s CPU      0.13s WALL (      39 calls)
     fftw         :   1699.13s CPU   1700.74s WALL ( 1076346 calls)
     interpolate  :      0.45s CPU      0.49s WALL (      20 calls)


     PWSCF        :      5h54m CPU      5h56m WALL


   This run was terminated on:   1:26:34  21Jul2026            

=------------------------------------------------------------------------------=
   JOB DONE.
=------------------------------------------------------------------------------=
