
     Program PWSCF v.7.5 starts on 20Jul2026 at 14:54:55 

     This program is part of the open-source Quantum ESPRESSO suite
     for quantum simulation of materials; please cite
         "P. Giannozzi et al., J. Phys.:Condens. Matter 21 395502 (2009);
         "P. Giannozzi et al., J. Phys.:Condens. Matter 29 465901 (2017);
         "P. Giannozzi et al., J. Chem. Phys. 152 154105 (2020);
          URL http://www.quantum-espresso.org", 
     in publications or presentations arising from this work. More details at
     http://www.quantum-espresso.org/quote

     Serial multi-threaded version, running on    1 processor cores
     22338 MiB available memory on the printing compute node when the environment starts

     Reading input from /home/tenant3/nexus-mat/dft/runs/dft-static-v3-worker-10/jobs/Pd-Rh-10_Pd6Rh3/input.in

     Current dimensions of program PWSCF are:
     Max number of different atomic species (ntypx) = 10
     Max number of k-points (npk) =  40000
     Max angular momentum in pseudopotentials (lmaxx) =  4
     Message from routine setup:
     no reason to have ecutrho>4*ecutwfc


     G-vector sticks info
     --------------------
     sticks:   dense  smooth     PW     G-vecs:    dense   smooth      PW
     Sum        5753    2879    795               403713   142763   21169

     Using Slab Decomposition



     bravais-lattice index     =            0
     lattice parameter (alat)  =       7.3412  a.u.
     unit-cell volume          =     915.6488 (a.u.)^3
     number of atoms/cell      =            9
     number of atomic types    =            2
     number of electrons       =       159.00
     number of Kohn-Sham states=           96
     kinetic-energy cutoff     =     110.0000  Ry
     charge density cutoff     =     880.0000  Ry
     scf convergence threshold =      1.0E-08
     mixing beta               =       0.3000
     number of iterations used =            8  plain     mixing
     Exchange-correlation= PBE
                           (   1   4   3   4   0   0   0)

     celldm(1)=   7.341160  celldm(2)=   0.000000  celldm(3)=   0.000000
     celldm(4)=   0.000000  celldm(5)=   0.000000  celldm(6)=   0.000000

     crystal axes: (cart. coord. in units of alat)
               a(1) = (   0.949874   0.000000   0.312633 )  
               a(2) = (   0.476035   1.521005   0.156072 )  
               a(3) = (   0.000000   0.000000   1.601911 )  

     reciprocal axes: (cart. coord. in units 2 pi/alat)
               b(1) = (  1.052771 -0.329490  0.000000 )  
               b(2) = (  0.000000  0.657460  0.000000 )  
               b(3) = ( -0.205462  0.000249  0.624254 )  


     PseudoPot. # 1 for Pd read from file:
     /home/tenant3/nexus-mat/dft/pseudo/SSSP_1.3.0_PBE_precision/Pd_ONCV_PBE-1.0.oncvpsp.upf
     MD5 check sum: eb77f42b51d86fb18e25f68156a31cf1
     Pseudo is Norm-conserving, Zval = 18.0
     Generated using ONCVPSP code by D. R. Hamann
     Using radial grid of 1410 points,  6 beta functions with: 
                l(1) =   0
                l(2) =   0
                l(3) =   1
                l(4) =   1
                l(5) =   2
                l(6) =   2

     PseudoPot. # 2 for Rh read from file:
     /home/tenant3/nexus-mat/dft/pseudo/SSSP_1.3.0_PBE_precision/Rh_ONCV_PBE-1.0.oncvpsp.upf
     MD5 check sum: ba07c69523b14cacd10683cd4c4284c1
     Pseudo is Norm-conserving, Zval = 17.0
     Generated using ONCVPSP code by D. R. Hamann
     Using radial grid of 1442 points,  6 beta functions with: 
                l(1) =   0
                l(2) =   0
                l(3) =   1
                l(4) =   1
                l(5) =   2
                l(6) =   2

     atomic species   valence    mass     pseudopotential
     Pd               18.00   106.42000     Pd( 1.00)
     Rh               17.00   102.90549     Rh( 1.00)

     No symmetry found



   Cartesian axes

     site n.     atom                  positions (alat units)
         1        Pd     tau(   1) = (   0.2323313   0.3459242   1.2391143  )
         2        Pd     tau(   2) = (   0.8660913   0.3517419   0.9119022  )
         3        Pd     tau(   3) = (   0.3896463   0.8551256   0.7611314  )
         4        Pd     tau(   4) = (   0.5489306   1.3641535   0.2773166  )
         5        Pd     tau(   5) = (   1.1810879   1.3582044   1.5571066  )
         6        Pd     tau(   6) = (   0.8669409   1.3576212   0.9111265  )
         7        Rh     tau(   7) = (   0.7015519   0.8502262   1.4136981  )
         8        Rh     tau(   8) = (   0.5497980   0.3652258   0.2728114  )
         9        Rh     tau(   9) = (   1.0267509   0.8446539   0.4236462  )

     number of k points=   100  Marzari-Vanderbilt smearing, width (Ry)=  0.0200

     Number of k-points >= 100: set verbosity='high' to print them.

     Dense  grid:   403713 G-vectors     FFT dimensions: (  72, 120, 120)

     Smooth grid:   142763 G-vectors     FFT dimensions: (  50,  80,  80)

     Estimated max dynamical RAM per process >       2.97 GB

     Initial potential from superposition of free atoms

     starting charge     158.9966, renormalised to     159.0000
     Starting wfcs are   90 randomized atomic wfcs +    6 random wfcs

     total cpu time spent up to now is      356.1 secs

     Self-consistent Calculation

     iteration #  1     ecut=   110.00 Ry     beta= 0.30
     Davidson diagonalization with overlap
     ethr =  1.00E-02,  avg # of iterations =  3.0

     Threshold (ethr) on eigenvalues was too large:
     Diagonalizing with lowered threshold

     Davidson diagonalization with overlap
     ethr =  1.57E-04,  avg # of iterations =  2.0

     total cpu time spent up to now is     3275.5 secs

     total energy              =   -2169.90660533 Ry
     estimated scf accuracy    <       0.24153304 Ry

     iteration #  2     ecut=   110.00 Ry     beta= 0.30
     Davidson diagonalization with overlap
     ethr =  1.52E-04,  avg # of iterations =  2.3

     total cpu time spent up to now is     4205.2 secs

     total energy              =   -2169.83805842 Ry
     estimated scf accuracy    <       2.36268447 Ry

     iteration #  3     ecut=   110.00 Ry     beta= 0.30
     Davidson diagonalization with overlap
     ethr =  1.52E-04,  avg # of iterations =  2.0

     total cpu time spent up to now is     5054.8 secs

     total energy              =   -2169.97271947 Ry
     estimated scf accuracy    <       0.04813794 Ry

     iteration #  4     ecut=   110.00 Ry     beta= 0.30
     Davidson diagonalization with overlap
     ethr =  3.03E-05,  avg # of iterations =  1.7

     total cpu time spent up to now is     5823.3 secs

     total energy              =   -2169.97514301 Ry
     estimated scf accuracy    <       0.03793370 Ry

     iteration #  5     ecut=   110.00 Ry     beta= 0.30
     Davidson diagonalization with overlap
     ethr =  2.39E-05,  avg # of iterations =  1.2

     total cpu time spent up to now is     6535.6 secs

     total energy              =   -2169.97707504 Ry
     estimated scf accuracy    <       0.00844528 Ry

     iteration #  6     ecut=   110.00 Ry     beta= 0.30
     Davidson diagonalization with overlap
     ethr =  5.31E-06,  avg # of iterations =  3.6

     total cpu time spent up to now is     7330.5 secs

     total energy              =   -2169.97706266 Ry
     estimated scf accuracy    <       0.00923757 Ry

     iteration #  7     ecut=   110.00 Ry     beta= 0.30
     Davidson diagonalization with overlap
     ethr =  5.31E-06,  avg # of iterations =  1.2

     total cpu time spent up to now is     8067.8 secs

     total energy              =   -2169.97740343 Ry
     estimated scf accuracy    <       0.00382704 Ry

     iteration #  8     ecut=   110.00 Ry     beta= 0.30
     Davidson diagonalization with overlap
     ethr =  2.41E-06,  avg # of iterations =  1.6

     total cpu time spent up to now is     8816.8 secs

     total energy              =   -2169.97771644 Ry
     estimated scf accuracy    <       0.00014386 Ry

     iteration #  9     ecut=   110.00 Ry     beta= 0.30
     Davidson diagonalization with overlap
     ethr =  9.05E-08,  avg # of iterations =  1.0

     total cpu time spent up to now is     9538.8 secs

     total energy              =   -2169.97772108 Ry
     estimated scf accuracy    <       0.00007424 Ry

     iteration # 10     ecut=   110.00 Ry     beta= 0.30
     Davidson diagonalization with overlap
     ethr =  4.67E-08,  avg # of iterations =  1.3

     total cpu time spent up to now is    10392.1 secs

     total energy              =   -2169.97772379 Ry
     estimated scf accuracy    <       0.00007329 Ry

     iteration # 11     ecut=   110.00 Ry     beta= 0.30
     Davidson diagonalization with overlap
     ethr =  4.61E-08,  avg # of iterations =  1.1

     total cpu time spent up to now is    11096.6 secs

     total energy              =   -2169.97772829 Ry
     estimated scf accuracy    <       0.00000863 Ry

     iteration # 12     ecut=   110.00 Ry     beta= 0.30
     Davidson diagonalization with overlap
     ethr =  5.43E-09,  avg # of iterations =  1.0

     total cpu time spent up to now is    11797.6 secs

     total energy              =   -2169.97772861 Ry
     estimated scf accuracy    <       0.00000801 Ry

     iteration # 13     ecut=   110.00 Ry     beta= 0.30
     Davidson diagonalization with overlap
     ethr =  5.04E-09,  avg # of iterations =  1.0

     total cpu time spent up to now is    12515.3 secs

     total energy              =   -2169.97772888 Ry
     estimated scf accuracy    <       0.00000182 Ry

     iteration # 14     ecut=   110.00 Ry     beta= 0.30
     Davidson diagonalization with overlap
     ethr =  1.14E-09,  avg # of iterations =  1.0

     total cpu time spent up to now is    13481.9 secs

     total energy              =   -2169.97772900 Ry
     estimated scf accuracy    <       0.00000173 Ry

     iteration # 15     ecut=   110.00 Ry     beta= 0.30
     Davidson diagonalization with overlap
     ethr =  1.09E-09,  avg # of iterations =  1.0

     total cpu time spent up to now is    14403.4 secs

     total energy              =   -2169.97772910 Ry
     estimated scf accuracy    <       0.00000068 Ry

     iteration # 16     ecut=   110.00 Ry     beta= 0.30
     Davidson diagonalization with overlap
     ethr =  4.25E-10,  avg # of iterations =  1.0

     total cpu time spent up to now is    15347.1 secs

     total energy              =   -2169.97772914 Ry
     estimated scf accuracy    <       0.00000011 Ry

     iteration # 17     ecut=   110.00 Ry     beta= 0.30
     Davidson diagonalization with overlap
     ethr =  7.10E-11,  avg # of iterations =  1.0

     total cpu time spent up to now is    16386.5 secs

     total energy              =   -2169.97772915 Ry
     estimated scf accuracy    <       0.00000006 Ry

     iteration # 18     ecut=   110.00 Ry     beta= 0.30
     Davidson diagonalization with overlap
     ethr =  4.08E-11,  avg # of iterations =  1.0

     total cpu time spent up to now is    17057.2 secs

     total energy              =   -2169.97772915 Ry
     estimated scf accuracy    <       0.00000004 Ry

     iteration # 19     ecut=   110.00 Ry     beta= 0.30
     Davidson diagonalization with overlap
     ethr =  2.52E-11,  avg # of iterations =  1.0

     total cpu time spent up to now is    17745.1 secs

     total energy              =   -2169.97772915 Ry
     estimated scf accuracy    <       0.00000001 Ry

     iteration # 20     ecut=   110.00 Ry     beta= 0.30
     Davidson diagonalization with overlap
     ethr =  8.91E-12,  avg # of iterations =  1.1

     total cpu time spent up to now is    18574.1 secs

     total energy              =   -2169.97772915 Ry
     estimated scf accuracy    <       0.00000002 Ry

     iteration # 21     ecut=   110.00 Ry     beta= 0.30
     Davidson diagonalization with overlap
     ethr =  8.91E-12,  avg # of iterations =  1.0

     total cpu time spent up to now is    19260.9 secs

     End of self-consistent calculation

     Number of k-points >= 100: set verbosity='high' to print the bands.

     the Fermi energy is    19.9880 ev

!    total energy              =   -2169.97772915 Ry
     estimated scf accuracy    <          7.4E-09 Ry
     smearing contrib. (-TS)   =      -0.00896887 Ry
     internal energy E=F+TS    =   -2169.96876028 Ry

     The total energy is F=E-TS. E is the sum of the following terms:
     one-electron contribution =    -628.25405296 Ry
     hartree contribution      =     411.03907986 Ry
     xc contribution           =    -214.56381209 Ry
     ewald contribution        =   -1738.18997509 Ry

     convergence has been achieved in  21 iterations

     Forces acting on atoms (cartesian axes, Ry/au):

     atom    1 type  1   force =    -0.00223088    0.00706427    0.00669942
     atom    2 type  1   force =     0.00076228    0.00284933   -0.00232284
     atom    3 type  1   force =     0.00096459   -0.00123269   -0.00322573
     atom    4 type  1   force =     0.00033049   -0.00338594   -0.00124547
     atom    5 type  1   force =    -0.00090056   -0.00245240    0.00266211
     atom    6 type  1   force =     0.00086855   -0.00252583   -0.00231733
     atom    7 type  2   force =    -0.00045222   -0.00006166    0.00161516
     atom    8 type  2   force =     0.00006543    0.00170218   -0.00006489
     atom    9 type  2   force =     0.00059231   -0.00195727   -0.00180044

     Total force =     0.013394     Total SCF correction =     0.000405


     Computing stress (Cartesian axis) and pressure

          total   stress  (Ry/bohr**3)                   (kbar)     P=      -21.54
  -0.00011389   0.00000148   0.00001631          -16.75        0.22        2.40
   0.00000148  -0.00016404  -0.00000962            0.22      -24.13       -1.42
   0.00001631  -0.00000962  -0.00016135            2.40       -1.42      -23.74


     Writing all to output data dir /home/tenant3/nexus-mat/dft/runs/dft-static-v3-worker-10/jobs/Pd-Rh-10_Pd6Rh3/tmp/Pd-Rh-10_Pd6Rh3.save/ :
     XML data file, charge density, pseudopotentials, collected wavefunctions

     init_run     :    346.39s CPU    355.98s WALL (       1 calls)
     electrons    :  18819.75s CPU  18904.89s WALL (       1 calls)
     forces       :    239.88s CPU    240.09s WALL (       1 calls)
     stress       :    791.17s CPU    792.66s WALL (       1 calls)

     Called by init_run:
     wfcinit      :    345.37s CPU    353.67s WALL (       1 calls)
     potinit      :      0.60s CPU      1.35s WALL (       1 calls)
     hinit0       :      0.19s CPU      0.40s WALL (       1 calls)

     Called by electrons:
     c_bands      :  18109.44s CPU  18193.23s WALL (      22 calls)
     sum_band     :    699.71s CPU    700.39s WALL (      22 calls)
     v_of_rho     :      8.55s CPU      9.77s WALL (      22 calls)
     mix_rho      :      1.61s CPU      1.63s WALL (      22 calls)

     Called by c_bands:
     init_us_2    :     46.66s CPU     46.75s WALL (    4700 calls)
     cegterg      :  17980.63s CPU  18063.99s WALL (    2200 calls)

     Called by *egterg:
     cdiaghg      :     53.93s CPU     53.96s WALL (    5327 calls)
     h_psi        :   8558.68s CPU   8606.00s WALL (    5527 calls)
     g_psi        :     14.40s CPU     14.41s WALL (    3227 calls)

     Called by h_psi:
     h_psi:calbec :   3325.48s CPU   3328.05s WALL (    5527 calls)
     vloc_psi     :   2461.05s CPU   2465.71s WALL (    5527 calls)
                                        0.00s GPU  (    5527 calls)
     add_vuspsi   :   2751.48s CPU   2765.08s WALL (    5527 calls)

     General routines
     calbec       :   4332.89s CPU   4335.93s WALL (    7227 calls)
     fft          :      4.89s CPU      5.15s WALL (     270 calls)
     ffts         :      0.17s CPU      0.18s WALL (      44 calls)
     fftw         :   2539.89s CPU   2543.95s WALL ( 1096994 calls)
     interpolate  :      0.61s CPU      0.64s WALL (      22 calls)


     PWSCF        :      5h36m CPU      5h38m WALL


   This run was terminated on:  20:33:10  20Jul2026            

=------------------------------------------------------------------------------=
   JOB DONE.
=------------------------------------------------------------------------------=
