
     Program PWSCF v.7.5 starts on 22Jul2026 at  2:23:35 

     This program is part of the open-source Quantum ESPRESSO suite
     for quantum simulation of materials; please cite
         "P. Giannozzi et al., J. Phys.:Condens. Matter 21 395502 (2009);
         "P. Giannozzi et al., J. Phys.:Condens. Matter 29 465901 (2017);
         "P. Giannozzi et al., J. Chem. Phys. 152 154105 (2020);
          URL http://www.quantum-espresso.org", 
     in publications or presentations arising from this work. More details at
     http://www.quantum-espresso.org/quote

     Serial multi-threaded version, running on    1 processor cores
     5071 MiB available memory on the printing compute node when the environment starts

     Reading input from /home/tenant3/nexus-mat/dft/runs/dft-paper-worker-08/jobs/Pt-Rh-01_Pt6Rh4/input.in

     Current dimensions of program PWSCF are:
     Max number of different atomic species (ntypx) = 10
     Max number of k-points (npk) =  40000
     Max angular momentum in pseudopotentials (lmaxx) =  4
     file Pt.pbe-spfn-rrkjus_psl.1.0.0.UPF: wavefunction(s)  5P renormalized


     G-vector sticks info
     --------------------
     sticks:   dense  smooth     PW     G-vecs:    dense   smooth      PW
     Sum        5695    2861    801               448863   158761   23419

     Using Slab Decomposition



     bravais-lattice index     =            0
     lattice parameter (alat)  =       9.0865  a.u.
     unit-cell volume          =    1018.1009 (a.u.)^3
     number of atoms/cell      =           10
     number of atomic types    =            2
     number of electrons       =       260.00
     number of Kohn-Sham states=          156
     kinetic-energy cutoff     =     110.0000  Ry
     charge density cutoff     =     880.0000  Ry
     scf convergence threshold =      1.0E-08
     mixing beta               =       0.3000
     number of iterations used =            8  plain     mixing
     Exchange-correlation= PBE
                           (   1   4   3   4   0   0   0)

     celldm(1)=   9.086544  celldm(2)=   0.000000  celldm(3)=   0.000000
     celldm(4)=   0.000000  celldm(5)=   0.000000  celldm(6)=   0.000000

     crystal axes: (cart. coord. in units of alat)
               a(1) = (   0.975712   0.000000  -0.219059 )  
               a(2) = (  -0.244859   0.912236  -0.328491 )  
               a(3) = (   0.000000   0.000000   1.524635 )  

     reciprocal axes: (cart. coord. in units 2 pi/alat)
               b(1) = (  1.024893  0.275098 -0.000000 )  
               b(2) = ( -0.000000  1.096208  0.000000 )  
               b(3) = (  0.147256  0.275710  0.655895 )  


     PseudoPot. # 1 for Pt read from file:
     /home/tenant3/nexus-mat/dft/pseudo/SSSP_1.3.0_PBE_precision/Pt.pbe-spfn-rrkjus_psl.1.0.0.UPF
     MD5 check sum: ed006ba81d2b6b3b17616bb61ae12f04
     Pseudo is Ultrasoft + core correction, Zval = 32.0
     Generated using "atomic" code by A. Dal Corso  v.5.1
     Using radial grid of 1277 points,  8 beta functions with: 
                l(1) =   0
                l(2) =   0
                l(3) =   1
                l(4) =   1
                l(5) =   2
                l(6) =   2
                l(7) =   3
                l(8) =   3
     Q(r) pseudized with 0 coefficients 


     PseudoPot. # 2 for Rh read from file:
     /home/tenant3/nexus-mat/dft/pseudo/SSSP_1.3.0_PBE_precision/Rh_ONCV_PBE-1.0.oncvpsp.upf
     MD5 check sum: ba07c69523b14cacd10683cd4c4284c1
     Pseudo is Norm-conserving, Zval = 17.0
     Generated using ONCVPSP code by D. R. Hamann
     Using radial grid of 1442 points,  6 beta functions with: 
                l(1) =   0
                l(2) =   0
                l(3) =   1
                l(4) =   1
                l(5) =   2
                l(6) =   2

     atomic species   valence    mass     pseudopotential
     Pt               32.00   195.08400     Pt( 1.00)
     Rh               17.00   102.90549     Rh( 1.00)

     No symmetry found



   Cartesian axes

     site n.     atom                  positions (alat units)
         1        Pt     tau(   1) = (   0.3855004   0.8301929   0.7787519  )
         2        Pt     tau(   2) = (  -0.1547193   0.6434853   0.6736713  )
         3        Pt     tau(   3) = (  -0.1023410   0.8302831   0.1260079  )
         4        Pt     tau(   4) = (   0.7256220   0.2808393   0.0186134  )
         5        Pt     tau(   5) = (   0.3330161   0.6436752  -0.1981346  )
         6        Pt     tau(   6) = (   0.2378247   0.2807558   0.8904382  )
         7        Rh     tau(   7) = (   0.1881085   0.0986393   1.4362248  )
         8        Rh     tau(   8) = (   0.7752588   0.4629553   0.9975128  )
         9        Rh     tau(   9) = (   0.2873767   0.4629593   0.3446975  )
        10        Rh     tau(  10) = (   0.6759997   0.0986048   0.5643819  )

     number of k points=    72  Marzari-Vanderbilt smearing, width (Ry)=  0.0200
                       cart. coord. in units 2pi/alat
        k(    1) = (   0.1038147   0.1487392   0.0819868), wk =   0.0277778
        k(    2) = (   0.1406287   0.2176666   0.2459605), wk =   0.0277778
        k(    3) = (   0.0301868   0.0108843  -0.2459605), wk =   0.0277778
        k(    4) = (   0.0670008   0.0798117  -0.0819868), wk =   0.0277778
        k(    5) = (   0.1038147   0.3314405   0.0819868), wk =   0.0277778
        k(    6) = (   0.1406287   0.4003679   0.2459605), wk =   0.0277778
        k(    7) = (   0.0301868   0.1935856  -0.2459605), wk =   0.0277778
        k(    8) = (   0.0670008   0.2625130  -0.0819868), wk =   0.0277778
        k(    9) = (   0.1038147   0.5141417   0.0819868), wk =   0.0277778
        k(   10) = (   0.1406287   0.5830692   0.2459605), wk =   0.0277778
        k(   11) = (   0.0301868   0.3762868  -0.2459605), wk =   0.0277778
        k(   12) = (   0.0670008   0.4452143  -0.0819868), wk =   0.0277778
        k(   13) = (   0.1038147  -0.3993646   0.0819868), wk =   0.0277778
        k(   14) = (   0.1406287  -0.3304372   0.2459605), wk =   0.0277778
        k(   15) = (   0.0301868  -0.5372195  -0.2459605), wk =   0.0277778
        k(   16) = (   0.0670008  -0.4682921  -0.0819868), wk =   0.0277778
        k(   17) = (   0.1038147  -0.2166633   0.0819868), wk =   0.0277778
        k(   18) = (   0.1406287  -0.1477359   0.2459605), wk =   0.0277778
        k(   19) = (   0.0301868  -0.3545182  -0.2459605), wk =   0.0277778
        k(   20) = (   0.0670008  -0.2855908  -0.0819868), wk =   0.0277778
        k(   21) = (   0.1038147  -0.0339621   0.0819868), wk =   0.0277778
        k(   22) = (   0.1406287   0.0349654   0.2459605), wk =   0.0277778
        k(   23) = (   0.0301868  -0.1718170  -0.2459605), wk =   0.0277778
        k(   24) = (   0.0670008  -0.1028895  -0.0819868), wk =   0.0277778
        k(   25) = (   0.2746302   0.1945889   0.0819868), wk =   0.0277778
        k(   26) = (   0.3114442   0.2635163   0.2459605), wk =   0.0277778
        k(   27) = (   0.2010023   0.0567340  -0.2459605), wk =   0.0277778
        k(   28) = (   0.2378162   0.1256614  -0.0819868), wk =   0.0277778
        k(   29) = (   0.2746302   0.3772901   0.0819868), wk =   0.0277778
        k(   30) = (   0.3114442   0.4462176   0.2459605), wk =   0.0277778
        k(   31) = (   0.2010023   0.2394352  -0.2459605), wk =   0.0277778
        k(   32) = (   0.2378162   0.3083627  -0.0819868), wk =   0.0277778
        k(   33) = (   0.2746302   0.5599914   0.0819868), wk =   0.0277778
        k(   34) = (   0.3114442   0.6289188   0.2459605), wk =   0.0277778
        k(   35) = (   0.2010023   0.4221365  -0.2459605), wk =   0.0277778
        k(   36) = (   0.2378162   0.4910639  -0.0819868), wk =   0.0277778
        k(   37) = (   0.2746302  -0.3535149   0.0819868), wk =   0.0277778
        k(   38) = (   0.3114442  -0.2845875   0.2459605), wk =   0.0277778
        k(   39) = (   0.2010023  -0.4913698  -0.2459605), wk =   0.0277778
        k(   40) = (   0.2378162  -0.4224424  -0.0819868), wk =   0.0277778
        k(   41) = (   0.2746302  -0.1708137   0.0819868), wk =   0.0277778
        k(   42) = (   0.3114442  -0.1018862   0.2459605), wk =   0.0277778
        k(   43) = (   0.2010023  -0.3086686  -0.2459605), wk =   0.0277778
        k(   44) = (   0.2378162  -0.2397411  -0.0819868), wk =   0.0277778
        k(   45) = (   0.2746302   0.0118876   0.0819868), wk =   0.0277778
        k(   46) = (   0.3114442   0.0808150   0.2459605), wk =   0.0277778
        k(   47) = (   0.2010023  -0.1259673  -0.2459605), wk =   0.0277778
        k(   48) = (   0.2378162  -0.0570399  -0.0819868), wk =   0.0277778
        k(   49) = (   0.4454457   0.2404385   0.0819868), wk =   0.0277778
        k(   50) = (   0.4822597   0.3093660   0.2459605), wk =   0.0277778
        k(   51) = (   0.3718177   0.1025836  -0.2459605), wk =   0.0277778
        k(   52) = (   0.4086317   0.1715111  -0.0819868), wk =   0.0277778
        k(   53) = (   0.4454457   0.4231398   0.0819868), wk =   0.0277778
        k(   54) = (   0.4822597   0.4920672   0.2459605), wk =   0.0277778
        k(   55) = (   0.3718177   0.2852849  -0.2459605), wk =   0.0277778
        k(   56) = (   0.4086317   0.3542123  -0.0819868), wk =   0.0277778
        k(   57) = (   0.4454457   0.6058410   0.0819868), wk =   0.0277778
        k(   58) = (   0.4822597   0.6747685   0.2459605), wk =   0.0277778
        k(   59) = (   0.3718177   0.4679862  -0.2459605), wk =   0.0277778
        k(   60) = (   0.4086317   0.5369136  -0.0819868), wk =   0.0277778
        k(   61) = (   0.4454457  -0.3076653   0.0819868), wk =   0.0277778
        k(   62) = (   0.4822597  -0.2387378   0.2459605), wk =   0.0277778
        k(   63) = (   0.3718177  -0.4455202  -0.2459605), wk =   0.0277778
        k(   64) = (   0.4086317  -0.3765927  -0.0819868), wk =   0.0277778
        k(   65) = (   0.4454457  -0.1249640   0.0819868), wk =   0.0277778
        k(   66) = (   0.4822597  -0.0560366   0.2459605), wk =   0.0277778
        k(   67) = (   0.3718177  -0.2628189  -0.2459605), wk =   0.0277778
        k(   68) = (   0.4086317  -0.1938915  -0.0819868), wk =   0.0277778
        k(   69) = (   0.4454457   0.0577373   0.0819868), wk =   0.0277778
        k(   70) = (   0.4822597   0.1266647   0.2459605), wk =   0.0277778
        k(   71) = (   0.3718177  -0.0801176  -0.2459605), wk =   0.0277778
        k(   72) = (   0.4086317  -0.0111902  -0.0819868), wk =   0.0277778

     Dense  grid:   448863 G-vectors     FFT dimensions: (  90,  90, 135)

     Smooth grid:   158761 G-vectors     FFT dimensions: (  64,  64,  96)

     Estimated max dynamical RAM per process >       7.61 GB

     Initial potential from superposition of free atoms

     starting charge     259.9974, renormalised to     260.0000
     Starting wfcs are  142 randomized atomic wfcs +   14 random wfcs

     total cpu time spent up to now is     1540.1 secs

     Self-consistent Calculation

     iteration #  1     ecut=   110.00 Ry     beta= 0.30
     Davidson diagonalization with overlap
     ethr =  1.00E-02,  avg # of iterations =  3.1

     Threshold (ethr) on eigenvalues was too large:
     Diagonalizing with lowered threshold

     Davidson diagonalization with overlap
     ethr =  9.31E-04,  avg # of iterations =  1.0

     total cpu time spent up to now is    11365.6 secs

     total energy              =   -7063.87614640 Ry
     estimated scf accuracy    <       2.42792265 Ry

     iteration #  2     ecut=   110.00 Ry     beta= 0.30
     Davidson diagonalization with overlap
     ethr =  9.34E-04,  avg # of iterations =  2.2

     total cpu time spent up to now is    16779.7 secs

     total energy              =   -7064.28558053 Ry
     estimated scf accuracy    <       7.60859153 Ry

     iteration #  3     ecut=   110.00 Ry     beta= 0.30
     Davidson diagonalization with overlap
     ethr =  9.34E-04,  avg # of iterations =  2.0

     total cpu time spent up to now is    21701.1 secs

     total energy              =   -7064.80788457 Ry
     estimated scf accuracy    <       0.10123374 Ry

     iteration #  4     ecut=   110.00 Ry     beta= 0.30
     Davidson diagonalization with overlap
     ethr =  3.89E-05,  avg # of iterations =  2.1

     total cpu time spent up to now is    26802.0 secs

     total energy              =   -7064.81931925 Ry
     estimated scf accuracy    <       0.01960014 Ry

     iteration #  5     ecut=   110.00 Ry     beta= 0.30
     Davidson diagonalization with overlap
     ethr =  7.54E-06,  avg # of iterations =  3.1

     total cpu time spent up to now is    31476.9 secs

     total energy              =   -7064.81885350 Ry
     estimated scf accuracy    <       0.07270343 Ry

     iteration #  6     ecut=   110.00 Ry     beta= 0.30
     Davidson diagonalization with overlap
     c_bands:  1 eigenvalues not converged
     ethr =  7.54E-06,  avg # of iterations =  1.6

     total cpu time spent up to now is    35118.8 secs

     total energy              =   -7064.82180331 Ry
     estimated scf accuracy    <       0.00898520 Ry

     iteration #  7     ecut=   110.00 Ry     beta= 0.30
     Davidson diagonalization with overlap
     ethr =  3.46E-06,  avg # of iterations =  1.4

     total cpu time spent up to now is    38729.1 secs

     total energy              =   -7064.82135884 Ry
     estimated scf accuracy    <       0.00508749 Ry

     iteration #  8     ecut=   110.00 Ry     beta= 0.30
     Davidson diagonalization with overlap
     c_bands:  1 eigenvalues not converged
     c_bands:  1 eigenvalues not converged
     ethr =  1.96E-06,  avg # of iterations =  2.5

     total cpu time spent up to now is    42455.7 secs

     total energy              =   -7064.82160030 Ry
     estimated scf accuracy    <       0.00155356 Ry

     iteration #  9     ecut=   110.00 Ry     beta= 0.30
     Davidson diagonalization with overlap
     ethr =  5.98E-07,  avg # of iterations =  1.1

     total cpu time spent up to now is    45971.9 secs

     total energy              =   -7064.82170928 Ry
     estimated scf accuracy    <       0.00023560 Ry

     iteration # 10     ecut=   110.00 Ry     beta= 0.30
     Davidson diagonalization with overlap
     ethr =  9.06E-08,  avg # of iterations =  1.0

     total cpu time spent up to now is    49427.5 secs

     total energy              =   -7064.82170450 Ry
     estimated scf accuracy    <       0.00021921 Ry

     iteration # 11     ecut=   110.00 Ry     beta= 0.30
     Davidson diagonalization with overlap
     ethr =  8.43E-08,  avg # of iterations =  1.0

     total cpu time spent up to now is    52888.7 secs

     total energy              =   -7064.82171108 Ry
     estimated scf accuracy    <       0.00002127 Ry

     iteration # 12     ecut=   110.00 Ry     beta= 0.30
     Davidson diagonalization with overlap
     ethr =  8.18E-09,  avg # of iterations =  1.0

     total cpu time spent up to now is    56349.7 secs

     total energy              =   -7064.82171212 Ry
     estimated scf accuracy    <       0.00001406 Ry

     iteration # 13     ecut=   110.00 Ry     beta= 0.30
     Davidson diagonalization with overlap
     ethr =  5.41E-09,  avg # of iterations =  1.0

     total cpu time spent up to now is    59797.9 secs

     total energy              =   -7064.82171312 Ry
     estimated scf accuracy    <       0.00000016 Ry

     iteration # 14     ecut=   110.00 Ry     beta= 0.30
     Davidson diagonalization with overlap
     ethr =  6.33E-11,  avg # of iterations =  2.0

     total cpu time spent up to now is    63958.0 secs

     total energy              =   -7064.82171313 Ry
     estimated scf accuracy    <       0.00000008 Ry

     iteration # 15     ecut=   110.00 Ry     beta= 0.30
     Davidson diagonalization with overlap
     ethr =  2.91E-11,  avg # of iterations =  1.6

     total cpu time spent up to now is    67749.7 secs

     total energy              =   -7064.82171314 Ry
     estimated scf accuracy    <       0.00000007 Ry

     iteration # 16     ecut=   110.00 Ry     beta= 0.30
     Davidson diagonalization with overlap
     ethr =  2.75E-11,  avg # of iterations =  1.0

     total cpu time spent up to now is    71203.3 secs

     total energy              =   -7064.82171314 Ry
     estimated scf accuracy    <       0.00000003 Ry

     iteration # 17     ecut=   110.00 Ry     beta= 0.30
     Davidson diagonalization with overlap
     ethr =  1.11E-11,  avg # of iterations =  1.0

     total cpu time spent up to now is    74653.7 secs

     total energy              =   -7064.82171314 Ry
     estimated scf accuracy    <       0.00000006 Ry

     iteration # 18     ecut=   110.00 Ry     beta= 0.30
     Davidson diagonalization with overlap
     ethr =  1.11E-11,  avg # of iterations =  1.0

     total cpu time spent up to now is    78105.5 secs

     End of self-consistent calculation

          k = 0.1038 0.1487 0.0820 ( 19818 PWs)   bands (ev):

   -74.5439 -74.5365 -74.5278 -74.5237 -74.5232 -74.5202 -54.4399 -54.4326
   -54.4132 -54.4060 -42.9419 -42.9418 -42.9359 -42.9356 -42.9352 -42.9349
   -42.9324 -42.9324 -42.9245 -42.9245 -42.9213 -42.9211 -42.9208 -42.9206
   -42.9202 -42.9197 -42.9193 -42.9192 -42.9190 -42.9188 -42.9185 -42.9183
   -42.9158 -42.9157 -42.9122 -42.9122 -42.9086 -42.9086 -42.9078 -42.9077
   -42.9076 -42.9075 -42.9072 -42.9071 -42.9069 -42.9067 -42.9066 -42.9065
   -42.9064 -42.9062 -42.9060 -42.9060 -28.7948 -28.7757 -28.7402 -28.7381
   -28.7333 -28.7266 -28.6785 -28.6743 -28.6630 -28.6530 -28.6182 -28.5880
   -28.5696 -28.5558 -28.5520 -28.5499 -28.5158 -28.5143 -22.3981 -22.3967
   -22.3549 -22.3475 -22.3026 -22.2882 -22.2706 -22.2631 -22.2227 -22.2150
   -22.1815 -22.1787  15.3078  17.2130  17.7898  18.4926  18.5150  18.7262
    18.8839  18.9641  19.0262  19.2342  19.2960  19.4777  19.5589  19.6181
    19.6210  19.7781  19.9891  20.1246  20.2598  20.2608  20.3476  20.4782
    20.7204  20.7351  20.7656  20.9043  20.9110  21.1209  21.1309  21.1441
    21.5513  21.6450  21.7756  22.2205  22.4204  22.4397  22.5889  22.7319
    22.7416  22.8078  22.8901  22.8982  23.1635  23.2982  23.5866  23.9218
    23.9786  24.0039  24.1248  24.3942  24.4946  24.5045  26.0553  26.3525
    26.5549  26.7928  28.4470  29.2075  29.6659  30.9714  30.9731  31.5599
    32.4272  32.5867  32.8496  32.9740  34.2751  34.3713  35.0630  35.7705
    35.8388  36.7166  37.1592  37.2123

          k = 0.1406 0.2177 0.2460 ( 19835 PWs)   bands (ev):

   -74.5409 -74.5405 -74.5259 -74.5258 -74.5213 -74.5209 -54.4374 -54.4359
   -54.4099 -54.4084 -42.9419 -42.9418 -42.9359 -42.9357 -42.9351 -42.9350
   -42.9324 -42.9324 -42.9246 -42.9245 -42.9213 -42.9211 -42.9208 -42.9207
   -42.9201 -42.9199 -42.9193 -42.9192 -42.9190 -42.9188 -42.9185 -42.9183
   -42.9158 -42.9157 -42.9122 -42.9122 -42.9086 -42.9085 -42.9078 -42.9077
   -42.9076 -42.9075 -42.9072 -42.9071 -42.9069 -42.9067 -42.9066 -42.9065
   -42.9063 -42.9062 -42.9060 -42.9059 -28.7934 -28.7868 -28.7434 -28.7367
   -28.7321 -28.7303 -28.6774 -28.6724 -28.6530 -28.6459 -28.6018 -28.5882
   -28.5770 -28.5753 -28.5506 -28.5400 -28.5202 -28.5165 -22.4014 -22.3925
   -22.3528 -22.3490 -22.2970 -22.2936 -22.2701 -22.2643 -22.2201 -22.2184
   -22.1842 -22.1761  15.9957  16.2769  18.2221  18.2352  18.4981  18.5185
    18.5247  18.7344  19.0981  19.1327  19.2136  19.4829  19.5582  19.6052
    19.7617  19.9385  20.0109  20.1643  20.2238  20.3422  20.3776  20.4588
    20.8866  20.9437  20.9668  21.1268  21.2267  21.3416  21.4372  21.4710
    21.4930  21.6561  21.7222  21.7932  21.9147  21.9449  22.4202  22.4463
    22.5856  22.6159  23.0060  23.0178  23.0558  23.1108  23.8493  24.0370
    24.2116  24.2423  24.2488  24.2630  24.4538  24.4656  26.0896  26.1955
    27.9354  28.3565  28.8310  29.0183  29.2485  29.9251  30.7022  30.7458
    31.3097  31.7892  32.8240  33.1630  33.4133  33.7920  34.6670  34.9840
    35.8057  36.4342  38.6028  39.1392

          k = 0.0302 0.0109-0.2460 ( 19817 PWs)   bands (ev):

   -74.5437 -74.5370 -74.5277 -74.5236 -74.5230 -74.5204 -54.4407 -54.4309
   -54.4148 -54.4051 -42.9419 -42.9418 -42.9359 -42.9357 -42.9351 -42.9350
   -42.9324 -42.9324 -42.9246 -42.9245 -42.9213 -42.9211 -42.9208 -42.9206
   -42.9201 -42.9199 -42.9193 -42.9192 -42.9190 -42.9188 -42.9184 -42.9183
   -42.9158 -42.9157 -42.9122 -42.9122 -42.9086 -42.9085 -42.9078 -42.9077
   -42.9076 -42.9075 -42.9072 -42.9071 -42.9069 -42.9067 -42.9066 -42.9065
   -42.9064 -42.9062 -42.9060 -42.9060 -28.7920 -28.7853 -28.7483 -28.7351
   -28.7274 -28.7168 -28.6823 -28.6713 -28.6545 -28.6513 -28.6319 -28.5914
   -28.5674 -28.5625 -28.5544 -28.5425 -28.5166 -28.5103 -22.4020 -22.3902
   -22.3588 -22.3452 -22.3049 -22.2857 -22.2751 -22.2594 -22.2239 -22.2133
   -22.1850 -22.1761  15.4778  17.0033  17.8221  18.4046  18.4424  18.6911
    18.7639  18.9379  19.0458  19.0929  19.1341  19.3864  19.5793  19.6753
    19.8135  19.8284  19.9799  20.0784  20.2699  20.3427  20.4004  20.6706
    20.7408  20.8905  20.9403  20.9425  21.0407  21.1385  21.1394  21.3365
    21.6402  21.7220  21.7788  22.1576  22.1661  22.2024  22.2746  22.3482
    22.5135  22.7008  22.8652  23.0160  23.1589  23.5258  23.6274  24.0430
    24.0756  24.2897  24.3302  24.3909  24.4199  24.4796  25.3524  26.5069
    26.6692  28.2041  28.6371  29.1462  29.2081  30.6692  31.1116  31.3103
    31.7560  32.3877  32.6100  32.9412  33.7523  33.7819  34.9039  35.5336
    36.3295  36.8342  37.3134  37.6607

          k = 0.0670 0.0798-0.0820 ( 19814 PWs)   bands (ev):

   -74.5449 -74.5344 -74.5287 -74.5246 -74.5223 -74.5205 -54.4416 -54.4286
   -54.4171 -54.4043 -42.9419 -42.9418 -42.9359 -42.9356 -42.9352 -42.9350
   -42.9324 -42.9324 -42.9245 -42.9245 -42.9213 -42.9212 -42.9208 -42.9205
   -42.9202 -42.9197 -42.9193 -42.9192 -42.9190 -42.9188 -42.9185 -42.9183
   -42.9158 -42.9157 -42.9122 -42.9122 -42.9086 -42.9085 -42.9078 -42.9077
   -42.9076 -42.9074 -42.9073 -42.9071 -42.9069 -42.9067 -42.9066 -42.9065
   -42.9064 -42.9061 -42.9060 -42.9060 -28.7944 -28.7723 -28.7433 -28.7410
   -28.7261 -28.7113 -28.6767 -28.6741 -28.6694 -28.6651 -28.6390 -28.5844
   -28.5648 -28.5572 -28.5525 -28.5484 -28.5126 -28.5085 -22.4003 -22.3927
   -22.3598 -22.3447 -22.3072 -22.2836 -22.2751 -22.2588 -22.2248 -22.2116
   -22.1827 -22.1782  15.1223  17.5324  17.7930  18.5142  18.6051  18.7867
    18.9138  18.9254  19.2048  19.2661  19.2674  19.4746  19.5697  19.6113
    19.6938  19.7043  19.9717  19.9855  20.1847  20.1979  20.3982  20.4570
    20.6744  20.6816  20.8132  20.8301  20.9422  20.9740  21.0220  21.0901
    21.3752  21.5880  21.8976  22.2038  22.3064  22.4647  22.5252  22.6786
    22.7697  22.8769  23.1925  23.3280  23.4033  23.5034  23.6247  23.8544
    24.0477  24.1542  24.3021  24.3468  24.5112  24.6409  24.8564  24.8794
    27.3068  27.3551  27.5195  29.4388  29.8384  30.1959  31.1631  32.5263
    33.0636  33.2145  33.2241  34.1431  34.4305  34.7911  35.2575  35.3282
    35.6738  35.9630  36.3959  36.6182

          k = 0.1038 0.3314 0.0820 ( 19806 PWs)   bands (ev):

   -74.5405 -74.5368 -74.5282 -74.5276 -74.5227 -74.5196 -54.4347 -54.4332
   -54.4126 -54.4112 -42.9418 -42.9418 -42.9359 -42.9356 -42.9352 -42.9349
   -42.9324 -42.9324 -42.9246 -42.9245 -42.9213 -42.9211 -42.9208 -42.9206
   -42.9202 -42.9198 -42.9193 -42.9192 -42.9189 -42.9188 -42.9184 -42.9182
   -42.9159 -42.9158 -42.9122 -42.9122 -42.9087 -42.9085 -42.9078 -42.9076
   -42.9076 -42.9075 -42.9072 -42.9070 -42.9069 -42.9067 -42.9066 -42.9065
   -42.9064 -42.9062 -42.9060 -42.9060 -28.7936 -28.7752 -28.7586 -28.7471
   -28.7201 -28.7062 -28.7010 -28.6778 -28.6466 -28.6281 -28.5937 -28.5881
   -28.5758 -28.5739 -28.5508 -28.5410 -28.5331 -28.5299 -22.4017 -22.3780
   -22.3531 -22.3490 -22.3037 -22.3033 -22.2641 -22.2570 -22.2176 -22.2161
   -22.1990 -22.1776  15.9919  17.2120  17.8730  17.9745  18.2810  18.3957
    18.4640  18.7294  18.8700  19.0843  19.1207  19.5061  19.5160  19.7576
    19.7753  19.8473  20.0678  20.2993  20.3241  20.3803  20.4478  20.5576
    20.7239  20.7903  20.8031  20.9702  21.1195  21.2307  21.3680  21.3702
    21.5222  21.7035  22.0935  22.1117  22.1415  22.2239  22.4468  22.5393
    22.7611  22.7691  22.9426  23.1044  23.2715  23.5119  23.8258  23.8364
    23.8749  24.2702  24.3338  24.3561  24.6172  24.6282  24.8936  25.4813
    25.9532  27.4798  28.4088  28.7871  30.2345  30.6086  31.1767  31.5880
    32.0360  33.0146  33.0285  33.2611  34.0811  34.1943  35.3659  36.1017
    36.1513  36.2908  36.4858  36.8991

          k = 0.1406 0.4004 0.2460 ( 19822 PWs)   bands (ev):

   -74.5403 -74.5372 -74.5296 -74.5254 -74.5220 -74.5209 -54.4368 -54.4301
   -54.4157 -54.4090 -42.9419 -42.9418 -42.9359 -42.9357 -42.9351 -42.9350
   -42.9324 -42.9324 -42.9246 -42.9245 -42.9213 -42.9211 -42.9208 -42.9206
   -42.9201 -42.9199 -42.9193 -42.9192 -42.9189 -42.9188 -42.9184 -42.9183
   -42.9159 -42.9158 -42.9122 -42.9122 -42.9087 -42.9085 -42.9078 -42.9076
   -42.9076 -42.9075 -42.9072 -42.9071 -42.9069 -42.9067 -42.9066 -42.9065
   -42.9064 -42.9062 -42.9060 -42.9060 -28.7862 -28.7832 -28.7564 -28.7495
   -28.7239 -28.7031 -28.6972 -28.6682 -28.6468 -28.6393 -28.6027 -28.5890
   -28.5775 -28.5706 -28.5515 -28.5381 -28.5364 -28.5210 -22.3999 -22.3805
   -22.3514 -22.3481 -22.3126 -22.2963 -22.2690 -22.2513 -22.2181 -22.2178
   -22.1963 -22.1790  16.3741  16.7336  17.8508  18.1151  18.2827  18.4853
    18.5063  18.6221  18.7313  18.9113  19.1914  19.3693  19.4162  19.6843
    19.7858  19.8341  20.0736  20.1473  20.4121  20.4263  20.6065  20.7409
    20.8779  20.8784  20.9412  21.2335  21.2378  21.2887  21.3201  21.3989
    21.4648  21.5119  21.7100  22.0323  22.1669  22.3267  22.3945  22.5264
    22.5491  22.5693  22.8371  23.2774  23.2921  23.6299  23.8064  23.8965
    24.1199  24.1515  24.2585  24.3099  24.4000  24.4721  24.6116  25.9567
    27.7319  28.1364  28.4548  28.8449  29.0770  29.3941  30.9781  31.4408
    32.1984  32.2646  32.9561  32.9828  33.1682  34.5755  35.1724  35.5072
    36.4728  37.2718  37.4751  38.3105

          k = 0.0302 0.1936-0.2460 ( 19826 PWs)   bands (ev):

   -74.5424 -74.5338 -74.5307 -74.5238 -74.5231 -74.5215 -54.4383 -54.4255
   -54.4203 -54.4075 -42.9419 -42.9418 -42.9359 -42.9357 -42.9351 -42.9350
   -42.9324 -42.9324 -42.9245 -42.9245 -42.9213 -42.9212 -42.9208 -42.9206
   -42.9201 -42.9199 -42.9193 -42.9191 -42.9190 -42.9188 -42.9184 -42.9183
   -42.9159 -42.9158 -42.9122 -42.9122 -42.9086 -42.9086 -42.9078 -42.9076
   -42.9075 -42.9074 -42.9072 -42.9071 -42.9069 -42.9067 -42.9066 -42.9065
   -42.9064 -42.9062 -42.9060 -42.9060 -28.7884 -28.7684 -28.7461 -28.7413
   -28.7309 -28.7107 -28.6940 -28.6791 -28.6689 -28.6517 -28.6080 -28.5758
   -28.5672 -28.5582 -28.5559 -28.5461 -28.5298 -28.5202 -22.3944 -22.3904
   -22.3481 -22.3474 -22.3164 -22.2929 -22.2691 -22.2512 -22.2199 -22.2172
   -22.1885 -22.1847  15.7686  17.4788  17.7664  18.3315  18.3669  18.5185
    18.7126  18.7400  18.7815  18.9159  19.0601  19.1000  19.1242  19.4595
    19.8081  20.0657  20.0671  20.1937  20.4398  20.6631  20.7330  20.8047
    20.8418  20.9105  21.0202  21.0536  21.1596  21.1980  21.2910  21.4082
    21.5809  21.6980  21.7314  21.7931  21.8593  22.0343  22.4221  22.5156
    22.7068  22.8216  22.8812  23.1283  23.2400  23.6294  23.7352  23.8531
    24.1508  24.2438  24.3510  24.4572  24.4587  24.4719  24.6138  26.0676
    26.0947  27.0055  27.7193  29.7241  29.8458  30.8892  31.4517  31.7022
    31.8402  32.9722  33.0837  33.5375  34.3934  34.4667  34.8146  34.9872
    36.1499  36.6493  37.4379  37.6560

          k = 0.0670 0.2625-0.0820 ( 19819 PWs)   bands (ev):

   -74.5425 -74.5333 -74.5304 -74.5253 -74.5239 -74.5199 -54.4376 -54.4283
   -54.4175 -54.4083 -42.9419 -42.9418 -42.9359 -42.9356 -42.9352 -42.9349
   -42.9324 -42.9324 -42.9245 -42.9245 -42.9213 -42.9211 -42.9208 -42.9205
   -42.9202 -42.9198 -42.9193 -42.9191 -42.9190 -42.9188 -42.9184 -42.9183
   -42.9159 -42.9158 -42.9122 -42.9122 -42.9086 -42.9086 -42.9078 -42.9076
   -42.9075 -42.9074 -42.9072 -42.9071 -42.9069 -42.9067 -42.9066 -42.9065
   -42.9064 -42.9062 -42.9060 -42.9060 -28.7924 -28.7640 -28.7466 -28.7393
   -28.7248 -28.7166 -28.6991 -28.6914 -28.6655 -28.6369 -28.6088 -28.5697
   -28.5684 -28.5582 -28.5523 -28.5468 -28.5326 -28.5273 -22.3986 -22.3859
   -22.3493 -22.3485 -22.3119 -22.2954 -22.2642 -22.2567 -22.2195 -22.2159
   -22.1931 -22.1812  15.6336  17.6361  17.8388  18.2024  18.2870  18.5207
    18.5351  18.7605  18.8586  19.0211  19.0864  19.1379  19.6624  19.7944
    19.9622  20.0295  20.0411  20.2150  20.2945  20.3992  20.5530  20.5607
    20.6722  20.6940  20.7060  21.0224  21.0765  21.1285  21.1989  21.3036
    21.6897  21.7440  21.9501  22.0869  22.1153  22.4639  22.5236  22.5709
    22.8273  22.8397  22.9329  23.1482  23.3943  23.4163  23.4725  23.6626
    23.8675  24.1688  24.3724  24.5162  24.6066  24.7581  24.7757  25.3070
    25.7955  26.4216  27.8536  29.1445  30.4759  31.6018  31.6663  32.2390
    32.4718  33.1432  33.4642  33.8048  34.4788  34.6208  35.1962  35.4344
    35.5919  36.2255  36.2974  36.4160

          k = 0.1038 0.5141 0.0820 ( 19824 PWs)   bands (ev):

   -74.5359 -74.5355 -74.5325 -74.5289 -74.5233 -74.5193 -54.4312 -54.4292
   -54.4168 -54.4146 -42.9418 -42.9418 -42.9359 -42.9356 -42.9352 -42.9349
   -42.9325 -42.9324 -42.9246 -42.9245 -42.9213 -42.9211 -42.9208 -42.9206
   -42.9202 -42.9198 -42.9193 -42.9191 -42.9189 -42.9187 -42.9184 -42.9182
   -42.9160 -42.9159 -42.9122 -42.9122 -42.9087 -42.9085 -42.9078 -42.9075
   -42.9075 -42.9074 -42.9071 -42.9070 -42.9069 -42.9067 -42.9066 -42.9065
   -42.9064 -42.9063 -42.9060 -42.9060 -28.7887 -28.7768 -28.7745 -28.7547
   -28.7177 -28.7074 -28.6713 -28.6559 -28.6336 -28.6280 -28.6138 -28.5874
   -28.5776 -28.5686 -28.5625 -28.5499 -28.5464 -28.5256 -22.3966 -22.3658
   -22.3511 -22.3439 -22.3258 -22.3080 -22.2619 -22.2382 -22.2262 -22.2105
   -22.2088 -22.1843  16.9681  17.3344  17.4372  17.8511  17.9663  18.1445
    18.5642  18.5862  18.7903  19.0893  19.2266  19.3544  19.5732  19.6751
    19.7031  19.7050  19.8870  19.9056  20.1171  20.3619  20.5923  20.6440
    20.7237  20.8081  20.9537  20.9719  21.1040  21.1436  21.3097  21.5281
    21.7310  21.7449  22.0916  22.2099  22.3316  22.3450  22.5130  22.7529
    22.7583  22.8953  23.3062  23.4758  23.6994  23.7204  23.8289  23.9967
    24.0699  24.0849  24.1962  24.2334  24.2738  24.3940  24.7651  24.8393
    25.4370  27.3796  27.9289  28.7882  29.6702  30.5573  31.0166  31.2609
    31.8228  31.9657  33.3632  33.7752  35.2368  35.6023  35.8131  36.0962
    36.3553  36.4067  37.0953  38.0250

          k = 0.1406 0.5831 0.2460 ( 19825 PWs)   bands (ev):

   -74.5380 -74.5350 -74.5317 -74.5265 -74.5232 -74.5209 -54.4325 -54.4268
   -54.4191 -54.4133 -42.9418 -42.9418 -42.9359 -42.9357 -42.9351 -42.9350
   -42.9324 -42.9324 -42.9246 -42.9245 -42.9213 -42.9211 -42.9208 -42.9206
   -42.9201 -42.9199 -42.9192 -42.9191 -42.9189 -42.9187 -42.9183 -42.9182
   -42.9160 -42.9159 -42.9122 -42.9122 -42.9087 -42.9086 -42.9077 -42.9076
   -42.9075 -42.9074 -42.9072 -42.9071 -42.9069 -42.9067 -42.9066 -42.9066
   -42.9064 -42.9063 -42.9060 -42.9060 -28.7814 -28.7748 -28.7649 -28.7492
   -28.7166 -28.7116 -28.6832 -28.6797 -28.6529 -28.6288 -28.6046 -28.5786
   -28.5710 -28.5628 -28.5564 -28.5471 -28.5470 -28.5297 -22.3904 -22.3810
   -22.3490 -22.3352 -22.3286 -22.3079 -22.2601 -22.2443 -22.2222 -22.2128
   -22.1988 -22.1909  16.8083  17.1585  17.6306  18.0729  18.2138  18.4529
    18.4897  18.5437  18.6344  18.8088  19.0840  19.2063  19.3401  19.3613
    19.4715  19.8332  20.1297  20.1941  20.4422  20.5655  20.6775  20.7357
    20.8503  20.8590  20.9974  21.0364  21.1293  21.1573  21.3761  21.4093
    21.5190  21.5581  22.0809  22.0932  22.5109  22.5151  22.5672  22.6257
    22.8798  22.9874  23.0469  23.2065  23.4348  23.4492  23.7163  23.8278
    23.8516  23.9508  24.0580  24.2020  24.2683  24.3227  24.7628  25.8980
    26.3247  27.0542  28.4165  28.9045  29.0646  30.5938  30.7155  30.7219
    31.6378  32.0901  33.1790  34.3390  35.1320  35.3291  35.6685  36.3330
    37.0228  37.2676  37.5174  37.9323

          k = 0.0302 0.3763-0.2460 ( 19826 PWs)   bands (ev):

   -74.5389 -74.5345 -74.5301 -74.5278 -74.5231 -74.5210 -54.4326 -54.4266
   -54.4192 -54.4133 -42.9418 -42.9418 -42.9359 -42.9357 -42.9351 -42.9350
   -42.9325 -42.9324 -42.9245 -42.9245 -42.9213 -42.9212 -42.9208 -42.9206
   -42.9201 -42.9199 -42.9193 -42.9191 -42.9189 -42.9187 -42.9183 -42.9182
   -42.9160 -42.9159 -42.9122 -42.9122 -42.9087 -42.9086 -42.9077 -42.9076
   -42.9075 -42.9074 -42.9072 -42.9071 -42.9069 -42.9067 -42.9066 -42.9065
   -42.9064 -42.9063 -42.9060 -42.9060 -28.7871 -28.7665 -28.7529 -28.7526
   -28.7091 -28.7045 -28.7026 -28.6946 -28.6626 -28.6185 -28.5935 -28.5822
   -28.5782 -28.5535 -28.5527 -28.5506 -28.5439 -28.5349 -22.3924 -22.3786
   -22.3478 -22.3441 -22.3179 -22.3111 -22.2539 -22.2528 -22.2157 -22.2151
   -22.2022 -22.1893  16.4786  17.2821  18.0520  18.1194  18.1471  18.3157
    18.5535  18.5743  18.6704  18.8362  18.9305  19.1479  19.2127  19.2359
    19.7208  20.0496  20.1183  20.3205  20.3456  20.6020  20.6091  20.7485
    20.8229  20.9364  21.0283  21.0643  21.1773  21.2154  21.4061  21.4641
    21.4670  21.5847  21.7792  21.9568  22.2997  22.4577  22.6083  22.7059
    22.8658  23.0651  23.2146  23.2267  23.4025  23.5728  23.6209  23.6782
    23.6956  24.0149  24.1208  24.3233  24.4851  24.5633  24.5726  25.1507
    26.4906  26.9855  27.5700  28.8751  28.9955  30.7831  30.9634  31.8993
    32.1384  32.8824  34.0326  34.3629  34.4793  35.1243  35.3153  35.4328
    36.5757  37.0606  37.2732  37.3604

          k = 0.0670 0.4452-0.0820 ( 19829 PWs)   bands (ev):

   -74.5380 -74.5333 -74.5309 -74.5304 -74.5235 -74.5193 -54.4314 -54.4289
   -54.4169 -54.4146 -42.9418 -42.9418 -42.9359 -42.9356 -42.9352 -42.9349
   -42.9325 -42.9324 -42.9246 -42.9245 -42.9213 -42.9211 -42.9208 -42.9205
   -42.9202 -42.9198 -42.9193 -42.9191 -42.9189 -42.9187 -42.9184 -42.9182
   -42.9160 -42.9159 -42.9122 -42.9122 -42.9087 -42.9085 -42.9077 -42.9076
   -42.9075 -42.9075 -42.9072 -42.9070 -42.9069 -42.9067 -42.9066 -42.9065
   -42.9065 -42.9063 -42.9060 -42.9060 -28.7920 -28.7697 -28.7696 -28.7551
   -28.7176 -28.7019 -28.6760 -28.6728 -28.6576 -28.6056 -28.5963 -28.5956
   -28.5765 -28.5724 -28.5558 -28.5497 -28.5486 -28.5275 -22.3976 -22.3621
   -22.3528 -22.3499 -22.3176 -22.3113 -22.2592 -22.2449 -22.2168 -22.2141
   -22.2109 -22.1838  16.5690  17.4852  17.7003  17.8920  18.0812  18.1504
    18.5315  18.5350  18.8082  19.0577  19.1613  19.3112  19.4037  19.6152
    19.7458  19.8753  20.0800  20.1784  20.2778  20.3951  20.3969  20.4220
    20.7156  20.7619  20.9356  21.0024  21.1359  21.2404  21.3060  21.5467
    21.5562  21.7365  22.0540  22.3351  22.4055  22.4837  22.5647  22.6433
    22.7284  23.0706  23.1268  23.3278  23.4819  23.6345  23.6448  23.9014
    23.9412  24.1429  24.2476  24.2703  24.3101  24.6720  24.7672  25.1548
    25.2660  26.8964  27.3372  28.5339  29.9147  31.0026  31.1470  31.9323
    32.4000  33.2182  33.7806  33.9887  34.4939  34.9007  35.0114  35.9643
    36.0017  36.2608  36.8174  37.1201

          k = 0.1038-0.3994 0.0820 ( 19839 PWs)   bands (ev):

   -74.5387 -74.5330 -74.5303 -74.5297 -74.5243 -74.5193 -54.4324 -54.4272
   -54.4186 -54.4136 -42.9418 -42.9418 -42.9359 -42.9356 -42.9352 -42.9349
   -42.9325 -42.9324 -42.9246 -42.9245 -42.9213 -42.9211 -42.9208 -42.9205
   -42.9202 -42.9198 -42.9193 -42.9191 -42.9189 -42.9187 -42.9184 -42.9182
   -42.9160 -42.9159 -42.9122 -42.9122 -42.9087 -42.9086 -42.9077 -42.9076
   -42.9075 -42.9074 -42.9072 -42.9070 -42.9069 -42.9067 -42.9066 -42.9066
   -42.9064 -42.9063 -42.9060 -42.9060 -28.7837 -28.7780 -28.7720 -28.7498
   -28.7127 -28.7018 -28.6886 -28.6827 -28.6427 -28.6197 -28.5909 -28.5898
   -28.5788 -28.5601 -28.5551 -28.5502 -28.5473 -28.5364 -22.3949 -22.3733
   -22.3490 -22.3455 -22.3164 -22.3127 -22.2553 -22.2503 -22.2165 -22.2138
   -22.2066 -22.1868  16.3542  17.5452  17.7973  17.8688  18.2247  18.2763
    18.5340  18.5939  18.7305  19.1065  19.1585  19.2600  19.6119  19.6168
    19.6407  19.7563  19.8622  20.1447  20.2046  20.3369  20.5073  20.5674
    20.8416  20.8468  20.9292  20.9655  20.9901  21.1265  21.3939  21.4012
    21.4830  21.8320  22.2262  22.2585  22.4709  22.6003  22.6361  22.7422
    22.9731  23.0451  23.0453  23.0772  23.1493  23.1690  23.5837  24.0121
    24.0605  24.2678  24.3939  24.4298  24.5102  24.5556  24.6766  24.9157
    25.9751  26.4165  27.4169  29.6472  29.7500  30.6197  30.6212  31.1271
    31.5834  31.6919  33.9251  35.0931  35.3832  35.7110  35.8174  36.0705
    36.8334  36.9254  36.9844  37.3566

          k = 0.1406-0.3304 0.2460 ( 19828 PWs)   bands (ev):

   -74.5390 -74.5343 -74.5303 -74.5275 -74.5231 -74.5211 -54.4327 -54.4263
   -54.4196 -54.4131 -42.9418 -42.9418 -42.9359 -42.9357 -42.9351 -42.9350
   -42.9325 -42.9324 -42.9245 -42.9245 -42.9213 -42.9212 -42.9208 -42.9206
   -42.9201 -42.9199 -42.9192 -42.9191 -42.9189 -42.9187 -42.9183 -42.9182
   -42.9160 -42.9159 -42.9122 -42.9122 -42.9087 -42.9086 -42.9077 -42.9076
   -42.9075 -42.9074 -42.9072 -42.9071 -42.9069 -42.9067 -42.9066 -42.9066
   -42.9064 -42.9063 -42.9060 -42.9060 -28.7816 -28.7772 -28.7552 -28.7492
   -28.7174 -28.7066 -28.6929 -28.6916 -28.6480 -28.6341 -28.5889 -28.5811
   -28.5747 -28.5588 -28.5522 -28.5496 -28.5494 -28.5319 -22.3871 -22.3852
   -22.3489 -22.3376 -22.3263 -22.3075 -22.2577 -22.2470 -22.2198 -22.2145
   -22.1955 -22.1939  16.3976  17.2952  18.0857  18.1726  18.2423  18.3717
    18.5144  18.5249  18.6999  18.8133  18.9566  18.9894  19.2943  19.5381
    19.6384  19.9155  20.0086  20.1354  20.2875  20.3986  20.6490  20.8145
    20.8192  21.0110  21.0174  21.0423  21.2029  21.2298  21.4893  21.5803
    21.6760  21.6902  21.7562  21.7568  22.2664  22.2912  22.6062  22.7114
    22.8102  23.0544  23.1429  23.1916  23.2590  23.4580  23.5811  24.0074
    24.0778  24.2415  24.2603  24.2855  24.4418  24.4780  24.7879  24.8436
    26.3736  27.4858  28.5130  28.5240  28.6381  29.6695  30.6052  30.9545
    32.1083  32.8849  33.7530  34.5840  35.0333  35.1245  35.4127  36.1559
    36.6210  37.3245  37.9947  38.0662

          k = 0.0302-0.5372-0.2460 ( 19823 PWs)   bands (ev):

   -74.5375 -74.5345 -74.5327 -74.5272 -74.5229 -74.5205 -54.4318 -54.4283
   -54.4176 -54.4140 -42.9418 -42.9418 -42.9359 -42.9357 -42.9351 -42.9350
   -42.9325 -42.9324 -42.9246 -42.9245 -42.9213 -42.9211 -42.9208 -42.9206
   -42.9201 -42.9200 -42.9193 -42.9191 -42.9189 -42.9187 -42.9183 -42.9182
   -42.9160 -42.9159 -42.9122 -42.9122 -42.9087 -42.9085 -42.9077 -42.9076
   -42.9075 -42.9074 -42.9072 -42.9070 -42.9069 -42.9067 -42.9067 -42.9065
   -42.9064 -42.9063 -42.9060 -42.9060 -28.7892 -28.7730 -28.7655 -28.7552
   -28.7190 -28.7175 -28.6715 -28.6596 -28.6398 -28.6394 -28.6000 -28.5820
   -28.5747 -28.5681 -28.5646 -28.5507 -28.5464 -28.5241 -22.3953 -22.3707
   -22.3510 -22.3395 -22.3287 -22.3064 -22.2614 -22.2384 -22.2266 -22.2118
   -22.2058 -22.1855  16.8669  17.2608  17.5047  18.0361  18.1253  18.3365
    18.3470  18.3530  18.7639  18.9523  19.1982  19.3081  19.5247  19.5735
    19.6586  19.7485  19.8548  20.0361  20.2359  20.3639  20.5102  20.5508
    20.8865  21.0737  21.0795  21.1552  21.1855  21.3140  21.3567  21.5061
    21.7358  21.7399  21.9759  22.2740  22.2755  22.4872  22.5445  22.6306
    22.6480  22.8927  23.1377  23.1611  23.3458  23.4011  23.6424  23.8660
    24.0066  24.0252  24.0888  24.3005  24.3506  24.4981  24.5895  26.4856
    26.6953  27.0461  27.0763  28.5227  28.9836  29.8966  30.7686  31.5608
    32.0344  32.6448  32.7825  34.4979  34.5224  34.9378  36.2135  36.3884
    36.7708  36.9240  37.3945  37.6191

          k = 0.0670-0.4683-0.0820 ( 19849 PWs)   bands (ev):

   -74.5367 -74.5345 -74.5321 -74.5296 -74.5236 -74.5190 -54.4308 -54.4297
   -54.4160 -54.4152 -42.9418 -42.9418 -42.9359 -42.9356 -42.9352 -42.9349
   -42.9325 -42.9324 -42.9246 -42.9245 -42.9213 -42.9211 -42.9208 -42.9206
   -42.9202 -42.9198 -42.9193 -42.9191 -42.9189 -42.9187 -42.9184 -42.9182
   -42.9160 -42.9159 -42.9122 -42.9122 -42.9087 -42.9085 -42.9077 -42.9075
   -42.9075 -42.9075 -42.9072 -42.9070 -42.9069 -42.9067 -42.9067 -42.9065
   -42.9065 -42.9063 -42.9060 -42.9060 -28.7918 -28.7763 -28.7754 -28.7555
   -28.7189 -28.7083 -28.6765 -28.6496 -28.6253 -28.6113 -28.6099 -28.6035
   -28.5800 -28.5708 -28.5644 -28.5506 -28.5445 -28.5277 -22.3980 -22.3575
   -22.3550 -22.3503 -22.3202 -22.3096 -22.2605 -22.2415 -22.2207 -22.2134
   -22.2111 -22.1830  16.7262  17.4236  17.5645  17.9081  18.0865  18.1036
    18.4224  18.5745  18.7087  19.1430  19.2756  19.3534  19.5344  19.6168
    19.7741  19.8792  19.9669  19.9772  20.1600  20.1956  20.2835  20.4585
    20.6328  20.9172  21.0119  21.0457  21.1357  21.4281  21.5113  21.6669
    21.8698  21.9123  21.9535  22.0896  22.0980  22.1952  22.4701  22.6139
    22.8395  23.0869  23.0888  23.2660  23.3900  23.5303  23.9729  24.1125
    24.1590  24.2022  24.3167  24.3859  24.3943  24.5413  24.6328  25.4431
    25.6622  25.9284  28.1354  28.5565  29.7230  30.7089  30.7814  31.1504
    31.2222  33.4212  34.2274  34.4847  34.7336  34.7513  34.9779  35.1406
    36.3983  36.5497  37.8097  38.4103

          k = 0.1038-0.2167 0.0820 ( 19829 PWs)   bands (ev):

   -74.5428 -74.5327 -74.5300 -74.5253 -74.5249 -74.5196 -54.4383 -54.4255
   -54.4203 -54.4075 -42.9419 -42.9418 -42.9359 -42.9356 -42.9352 -42.9349
   -42.9324 -42.9324 -42.9245 -42.9245 -42.9213 -42.9212 -42.9208 -42.9205
   -42.9203 -42.9197 -42.9193 -42.9192 -42.9189 -42.9188 -42.9185 -42.9182
   -42.9159 -42.9158 -42.9122 -42.9122 -42.9086 -42.9086 -42.9078 -42.9076
   -42.9075 -42.9074 -42.9072 -42.9071 -42.9069 -42.9067 -42.9066 -42.9065
   -42.9064 -42.9062 -42.9060 -42.9060 -28.7863 -28.7795 -28.7570 -28.7333
   -28.7234 -28.7075 -28.6958 -28.6888 -28.6525 -28.6509 -28.6058 -28.5732
   -28.5656 -28.5589 -28.5550 -28.5504 -28.5306 -28.5265 -22.3934 -22.3920
   -22.3482 -22.3477 -22.3162 -22.2931 -22.2665 -22.2523 -22.2201 -22.2174
   -22.1875 -22.1856  15.5110  17.5811  17.9830  18.2549  18.3543  18.6862
    18.7366  18.7604  18.8882  19.0958  19.1541  19.2020  19.4798  19.5826
    19.6812  19.8995  19.9534  20.0579  20.2386  20.3520  20.4826  20.5724
    20.6683  20.7191  20.8679  20.8908  21.0642  21.1533  21.2660  21.5248
    21.5844  21.9235  22.1185  22.2277  22.2599  22.2878  22.4643  22.5015
    22.6567  22.7389  22.8383  22.9841  23.4877  23.6519  23.8482  24.0354
    24.0569  24.0850  24.2751  24.2991  24.4630  24.5233  24.6127  25.3109
    26.1631  27.8953  28.0390  28.1623  29.3315  30.4288  31.0472  32.0170
    32.2618  32.8498  33.4202  33.8814  33.9571  35.0046  36.1944  36.3286
    36.4055  36.6900  36.9790  37.0638

          k = 0.1406-0.1477 0.2460 ( 19842 PWs)   bands (ev):

   -74.5420 -74.5348 -74.5303 -74.5243 -74.5226 -74.5214 -54.4375 -54.4284
   -54.4174 -54.4083 -42.9419 -42.9418 -42.9359 -42.9357 -42.9351 -42.9350
   -42.9324 -42.9324 -42.9246 -42.9245 -42.9213 -42.9211 -42.9208 -42.9206
   -42.9202 -42.9198 -42.9193 -42.9192 -42.9189 -42.9187 -42.9184 -42.9183
   -42.9159 -42.9158 -42.9122 -42.9122 -42.9087 -42.9085 -42.9078 -42.9076
   -42.9075 -42.9074 -42.9073 -42.9070 -42.9069 -42.9067 -42.9066 -42.9065
   -42.9064 -42.9062 -42.9060 -42.9060 -28.7854 -28.7824 -28.7501 -28.7485
   -28.7311 -28.7083 -28.6852 -28.6685 -28.6563 -28.6535 -28.5960 -28.5851
   -28.5680 -28.5656 -28.5566 -28.5484 -28.5337 -28.5182 -22.3989 -22.3828
   -22.3515 -22.3480 -22.3151 -22.2940 -22.2682 -22.2503 -22.2195 -22.2178
   -22.1939 -22.1803  15.8027  17.3565  17.7061  18.3772  18.4424  18.6308
    18.6339  18.7180  18.7474  18.8700  19.1273  19.1903  19.3497  19.4602
    19.7588  19.7609  19.8830  19.9865  20.3193  20.5358  20.7300  20.9538
    20.9564  21.0180  21.0255  21.0675  21.1588  21.3449  21.4245  21.4517
    21.4939  21.7511  21.8251  21.9134  21.9988  22.1216  22.2276  22.4279
    22.5065  22.6845  22.8289  23.0485  23.4712  23.5817  23.9617  24.0712
    24.0857  24.1827  24.2475  24.2975  24.4209  24.5265  24.5492  26.4139
    27.1150  27.2286  28.5291  29.2282  29.2795  29.9981  30.4878  30.5734
    31.1136  31.7910  32.9337  33.6219  34.2531  35.3123  35.9176  36.3191
    36.3725  37.6925  38.0815  38.5774

          k = 0.0302-0.3545-0.2460 ( 19836 PWs)   bands (ev):

   -74.5391 -74.5385 -74.5292 -74.5258 -74.5227 -74.5199 -54.4346 -54.4333
   -54.4126 -54.4112 -42.9418 -42.9418 -42.9359 -42.9357 -42.9351 -42.9350
   -42.9324 -42.9324 -42.9246 -42.9245 -42.9213 -42.9211 -42.9208 -42.9206
   -42.9200 -42.9200 -42.9193 -42.9191 -42.9190 -42.9187 -42.9184 -42.9183
   -42.9159 -42.9158 -42.9122 -42.9122 -42.9087 -42.9085 -42.9078 -42.9076
   -42.9076 -42.9075 -42.9072 -42.9070 -42.9069 -42.9067 -42.9066 -42.9065
   -42.9064 -42.9062 -42.9060 -42.9059 -28.7933 -28.7806 -28.7637 -28.7500
   -28.7256 -28.7057 -28.6842 -28.6786 -28.6333 -28.6287 -28.5913 -28.5864
   -28.5802 -28.5783 -28.5514 -28.5456 -28.5406 -28.5232 -22.4021 -22.3771
   -22.3540 -22.3480 -22.3069 -22.3001 -22.2655 -22.2547 -22.2181 -22.2175
   -22.1990 -22.1773  16.4330  16.5444  17.9442  18.2256  18.3827  18.4543
    18.4866  18.5821  18.7157  18.9214  18.9219  19.2218  19.4857  19.6623
    19.7446  19.8971  20.0615  20.1685  20.2488  20.4792  20.6660  20.7940
    20.9038  20.9572  21.1602  21.1693  21.4240  21.4352  21.4556  21.4894
    21.5736  21.7089  21.7182  21.9114  22.1073  22.1675  22.1844  22.3930
    22.6619  22.6796  22.8823  23.0944  23.2647  23.2719  23.6578  23.7840
    23.8917  24.3076  24.3166  24.3259  24.4596  24.4870  25.2179  26.3467
    27.4203  27.5483  28.6201  28.8202  29.1430  30.3724  30.4642  30.5154
    31.0343  32.0680  32.1302  32.7056  34.6318  35.4599  35.8911  36.1148
    36.6547  37.1989  37.7665  37.9552

          k = 0.0670-0.2856-0.0820 ( 19835 PWs)   bands (ev):

   -74.5415 -74.5352 -74.5283 -74.5273 -74.5242 -74.5189 -54.4369 -54.4300
   -54.4158 -54.4090 -42.9419 -42.9418 -42.9359 -42.9356 -42.9352 -42.9349
   -42.9324 -42.9324 -42.9246 -42.9245 -42.9213 -42.9211 -42.9208 -42.9206
   -42.9202 -42.9198 -42.9193 -42.9191 -42.9189 -42.9187 -42.9184 -42.9183
   -42.9159 -42.9158 -42.9122 -42.9122 -42.9086 -42.9085 -42.9078 -42.9077
   -42.9075 -42.9075 -42.9072 -42.9071 -42.9069 -42.9067 -42.9066 -42.9065
   -42.9064 -42.9062 -42.9060 -42.9060 -28.7911 -28.7804 -28.7680 -28.7402
   -28.7180 -28.7064 -28.6920 -28.6880 -28.6380 -28.6308 -28.6054 -28.5810
   -28.5694 -28.5583 -28.5524 -28.5493 -28.5428 -28.5291 -22.4006 -22.3830
   -22.3506 -22.3474 -22.3092 -22.2978 -22.2615 -22.2590 -22.2188 -22.2172
   -22.1959 -22.1792  15.7422  17.4354  17.9114  18.0359  18.3229  18.3729
    18.6204  18.8522  18.8684  19.0623  19.1612  19.3892  19.4265  19.4726
    19.6260  19.8913  20.1043  20.2563  20.2958  20.3387  20.5289  20.5441
    20.7345  20.7347  20.9025  21.0807  21.2105  21.2689  21.3481  21.4829
    21.8517  21.9042  21.9311  22.1538  22.2910  22.3154  22.3422  22.6606
    22.6923  22.7639  22.8195  22.9599  23.1372  23.1484  23.7072  23.7896
    24.0075  24.0609  24.1029  24.2923  24.3908  24.7636  25.7193  25.8787
    26.5514  26.8657  27.1384  28.9601  30.0553  30.4073  31.3190  31.3309
    32.0215  32.7544  32.9171  33.6968  34.4679  34.6257  35.0671  36.1428
    36.6367  36.7881  37.0124  37.2478

          k = 0.1038-0.0340 0.0820 ( 19846 PWs)   bands (ev):

   -74.5447 -74.5350 -74.5282 -74.5245 -74.5226 -74.5203 -54.4413 -54.4295
   -54.4163 -54.4046 -42.9419 -42.9418 -42.9359 -42.9356 -42.9352 -42.9349
   -42.9324 -42.9324 -42.9245 -42.9245 -42.9213 -42.9212 -42.9208 -42.9205
   -42.9203 -42.9197 -42.9193 -42.9192 -42.9190 -42.9188 -42.9185 -42.9183
   -42.9158 -42.9157 -42.9122 -42.9122 -42.9086 -42.9085 -42.9078 -42.9077
   -42.9076 -42.9074 -42.9073 -42.9071 -42.9069 -42.9067 -42.9066 -42.9065
   -42.9064 -42.9062 -42.9060 -42.9060 -28.7920 -28.7797 -28.7495 -28.7426
   -28.7188 -28.7101 -28.6831 -28.6771 -28.6591 -28.6574 -28.6347 -28.5883
   -28.5659 -28.5594 -28.5513 -28.5496 -28.5135 -28.5090 -22.4020 -22.3897
   -22.3610 -22.3449 -22.3067 -22.2844 -22.2743 -22.2588 -22.2246 -22.2116
   -22.1847 -22.1765  15.1331  17.4828  17.6972  18.6354  18.8193  18.8514
    18.9102  19.0402  19.1566  19.1889  19.3732  19.3759  19.4712  19.5253
    19.6509  19.6519  19.6961  20.0194  20.2294  20.3225  20.3539  20.4466
    20.5157  20.6766  20.8521  20.8846  20.9016  21.0176  21.0885  21.1322
    21.2195  21.4511  22.2706  22.4606  22.4770  22.4851  22.5033  22.6807
    22.7048  22.8555  22.9360  23.1002  23.2230  23.5955  23.6855  24.0403
    24.0848  24.2136  24.2792  24.2936  24.3093  24.3719  25.0550  25.2700
    27.2679  28.0585  28.6828  29.0019  29.2687  29.7703  30.6948  31.6364
    31.8719  32.2689  32.9482  33.6515  34.3538  35.8375  36.1104  36.4094
    36.7824  36.8068  36.9096  37.3298

          k = 0.1406 0.0350 0.2460 ( 19847 PWs)   bands (ev):

   -74.5427 -74.5385 -74.5274 -74.5237 -74.5217 -74.5213 -54.4387 -54.4343
   -54.4115 -54.4070 -42.9419 -42.9418 -42.9359 -42.9357 -42.9351 -42.9350
   -42.9324 -42.9324 -42.9246 -42.9245 -42.9213 -42.9211 -42.9208 -42.9206
   -42.9201 -42.9198 -42.9193 -42.9192 -42.9190 -42.9188 -42.9185 -42.9183
   -42.9158 -42.9157 -42.9122 -42.9122 -42.9086 -42.9085 -42.9078 -42.9077
   -42.9076 -42.9075 -42.9072 -42.9071 -42.9069 -42.9067 -42.9066 -42.9065
   -42.9063 -42.9062 -42.9060 -42.9059 -28.7899 -28.7890 -28.7479 -28.7459
   -28.7266 -28.7169 -28.6808 -28.6746 -28.6573 -28.6418 -28.6101 -28.5871
   -28.5787 -28.5599 -28.5526 -28.5498 -28.5177 -28.5144 -22.4024 -22.3907
   -22.3562 -22.3471 -22.3004 -22.2903 -22.2707 -22.2629 -22.2225 -22.2158
   -22.1848 -22.1758  15.6477  16.6415  17.9561  18.6107  18.6347  18.6515
    18.7942  18.8098  18.8324  18.9476  19.3005  19.4055  19.4467  19.5038
    19.5506  19.6964  19.9519  20.2471  20.2971  20.4904  20.5357  20.6509
    20.8748  20.9484  21.0086  21.0902  21.0959  21.1965  21.2782  21.3617
    21.4074  21.5059  22.0099  22.0208  22.1212  22.2589  22.2903  22.4582
    22.5828  22.6515  22.7843  22.8286  23.0610  23.3378  23.8896  24.0888
    24.1342  24.1919  24.2315  24.2525  24.2920  24.3226  26.0871  26.5963
    27.3530  28.5612  28.9605  29.5856  29.7799  29.9632  30.0236  30.2032
    31.3536  31.4056  31.8989  32.1670  33.5617  34.2003  35.1709  36.8729
    37.8055  37.8588  37.9134  38.6631

          k = 0.0302-0.1718-0.2460 ( 19837 PWs)   bands (ev):

   -74.5423 -74.5389 -74.5260 -74.5257 -74.5228 -74.5197 -54.4388 -54.4343
   -54.4115 -54.4071 -42.9419 -42.9418 -42.9359 -42.9357 -42.9351 -42.9350
   -42.9324 -42.9324 -42.9246 -42.9245 -42.9213 -42.9211 -42.9208 -42.9206
   -42.9200 -42.9199 -42.9193 -42.9192 -42.9190 -42.9188 -42.9184 -42.9183
   -42.9158 -42.9157 -42.9122 -42.9122 -42.9086 -42.9085 -42.9078 -42.9077
   -42.9076 -42.9075 -42.9072 -42.9071 -42.9069 -42.9067 -42.9066 -42.9065
   -42.9064 -42.9062 -42.9060 -42.9059 -28.7944 -28.7880 -28.7558 -28.7340
   -28.7305 -28.7135 -28.6786 -28.6781 -28.6631 -28.6326 -28.6082 -28.5911
   -28.5683 -28.5666 -28.5542 -28.5466 -28.5197 -28.5178 -22.4001 -22.3951
   -22.3514 -22.3491 -22.2994 -22.2911 -22.2693 -22.2647 -22.2213 -22.2182
   -22.1826 -22.1774  15.7123  16.5758  18.1280  18.3279  18.5647  18.6221
    18.7779  18.7928  18.9021  18.9671  19.0248  19.2012  19.4737  19.7063
    19.7745  19.8069  20.0477  20.1181  20.3755  20.4852  20.5277  20.7592
    20.7953  20.9656  20.9706  21.0627  21.2716  21.3476  21.4668  21.5225
    21.5992  21.6615  21.7296  21.8238  21.9238  22.0332  22.3390  22.3744
    22.4060  22.6966  22.9121  22.9594  23.1094  23.2722  23.6440  23.7612
    23.8791  24.2928  24.3370  24.3438  24.4602  24.4802  26.3678  27.0146
    27.3105  27.5167  28.4718  28.7704  29.9212  30.0365  30.8550  31.2901
    31.3120  31.9132  32.0000  32.8681  33.0608  34.2947  34.6684  35.8851
    36.4035  37.8478  37.9164  38.3139

          k = 0.0670-0.1029-0.0820 ( 19833 PWs)   bands (ev):

   -74.5446 -74.5351 -74.5276 -74.5249 -74.5237 -74.5194 -54.4413 -54.4295
   -54.4163 -54.4046 -42.9419 -42.9418 -42.9359 -42.9356 -42.9352 -42.9349
   -42.9324 -42.9324 -42.9245 -42.9245 -42.9213 -42.9211 -42.9208 -42.9206
   -42.9202 -42.9197 -42.9194 -42.9192 -42.9190 -42.9188 -42.9185 -42.9183
   -42.9158 -42.9157 -42.9122 -42.9122 -42.9086 -42.9085 -42.9078 -42.9077
   -42.9076 -42.9075 -42.9072 -42.9071 -42.9069 -42.9067 -42.9066 -42.9065
   -42.9064 -42.9062 -42.9060 -42.9060 -28.7938 -28.7822 -28.7559 -28.7273
   -28.7243 -28.7118 -28.6807 -28.6747 -28.6730 -28.6429 -28.6342 -28.5889
   -28.5673 -28.5563 -28.5527 -28.5479 -28.5147 -28.5126 -22.3993 -22.3949
   -22.3575 -22.3453 -22.3063 -22.2847 -22.2737 -22.2596 -22.2244 -22.2132
   -22.1812 -22.1793  15.1588  17.4961  17.7458  18.5569  18.6386  18.6786
    18.8860  18.9130  19.0811  19.1675  19.2860  19.5085  19.5804  19.7197
    19.7336  19.8015  19.8411  19.9363  20.0565  20.0780  20.4459  20.6036
    20.7199  20.7378  20.7471  20.9133  20.9859  21.0676  21.1926  21.2407
    21.3526  21.5690  21.9599  22.2101  22.3791  22.4309  22.5160  22.6839
    22.8451  22.9214  23.0662  23.1176  23.2705  23.4368  23.5003  23.5522
    23.9261  24.0178  24.1675  24.3089  24.3829  24.6738  25.6430  25.7203
    27.0226  27.6923  27.9358  28.7310  29.6435  30.2034  30.5237  31.4949
    32.8460  33.3097  34.0978  34.1839  34.4636  34.7068  34.9489  35.1607
    35.4380  35.9561  36.5681  36.6849

          k = 0.2746 0.1946 0.0820 ( 19822 PWs)   bands (ev):

   -74.5417 -74.5379 -74.5280 -74.5242 -74.5218 -74.5217 -54.4375 -54.4359
   -54.4099 -54.4084 -42.9419 -42.9418 -42.9359 -42.9355 -42.9353 -42.9350
   -42.9324 -42.9324 -42.9245 -42.9245 -42.9212 -42.9210 -42.9208 -42.9205
   -42.9203 -42.9198 -42.9196 -42.9194 -42.9189 -42.9187 -42.9185 -42.9183
   -42.9158 -42.9157 -42.9122 -42.9122 -42.9086 -42.9085 -42.9078 -42.9077
   -42.9076 -42.9074 -42.9072 -42.9071 -42.9070 -42.9067 -42.9066 -42.9065
   -42.9063 -42.9061 -42.9060 -42.9059 -28.7930 -28.7742 -28.7498 -28.7421
   -28.7307 -28.7203 -28.6720 -28.6703 -28.6582 -28.6504 -28.6038 -28.5965
   -28.5897 -28.5721 -28.5461 -28.5348 -28.5197 -28.5165 -22.3999 -22.3935
   -22.3517 -22.3504 -22.2976 -22.2942 -22.2688 -22.2676 -22.2196 -22.2171
   -22.1836 -22.1769  15.9262  17.0719  18.0102  18.3795  18.4243  18.4805
    18.5349  18.5680  18.9384  18.9814  19.0560  19.1623  19.2040  19.5042
    19.6555  20.0867  20.0998  20.2408  20.3816  20.4539  20.6031  20.6087
    20.7087  21.0393  21.0934  21.1062  21.2477  21.2739  21.3466  21.3925
    21.5523  21.5946  21.6757  21.7832  21.8437  22.4588  22.4597  22.6057
    22.7489  22.8540  22.9379  23.2099  23.2235  23.4810  23.5519  23.8085
    23.8286  24.2732  24.3081  24.3118  24.5042  24.6071  24.7385  26.3167
    26.9698  27.1618  27.5109  29.1861  30.3281  30.5775  30.8908  31.2524
    31.8984  32.3296  32.6514  33.7952  34.1033  34.6954  34.8637  35.3669
    36.7156  37.0619  37.2050  37.8081

          k = 0.3114 0.2635 0.2460 ( 19819 PWs)   bands (ev):

   -74.5413 -74.5383 -74.5268 -74.5261 -74.5226 -74.5203 -54.4399 -54.4326
   -54.4132 -54.4060 -42.9419 -42.9418 -42.9358 -42.9356 -42.9352 -42.9351
   -42.9324 -42.9324 -42.9246 -42.9245 -42.9212 -42.9210 -42.9207 -42.9207
   -42.9202 -42.9199 -42.9195 -42.9194 -42.9189 -42.9187 -42.9185 -42.9183
   -42.9158 -42.9157 -42.9122 -42.9122 -42.9086 -42.9085 -42.9078 -42.9077
   -42.9076 -42.9074 -42.9072 -42.9071 -42.9070 -42.9067 -42.9066 -42.9065
   -42.9063 -42.9061 -42.9060 -42.9059 -28.7915 -28.7874 -28.7604 -28.7240
   -28.7226 -28.7220 -28.6718 -28.6703 -28.6521 -28.6391 -28.6256 -28.5968
   -28.5875 -28.5740 -28.5471 -28.5323 -28.5229 -28.5126 -22.4011 -22.3910
   -22.3553 -22.3464 -22.3036 -22.2880 -22.2767 -22.2609 -22.2220 -22.2148
   -22.1853 -22.1759  16.3801  16.6343  18.0660  18.1542  18.1791  18.3301
    18.5330  18.6298  18.7081  19.2344  19.3502  19.3866  19.5799  19.6111
    19.8059  19.8459  19.9790  20.0992  20.1029  20.2046  20.4597  20.4883
    20.8119  20.8861  21.0774  21.1055  21.1608  21.2399  21.3163  21.4469
    21.4978  21.7881  21.8196  22.0153  22.0902  22.5143  22.5202  22.6144
    22.6413  22.7840  22.9815  23.1487  23.2283  23.6187  23.7210  23.8545
    24.0899  24.1672  24.2715  24.2994  24.3736  24.4658  24.5798  26.1787
    27.1898  27.4874  28.7786  29.1838  29.4424  30.1307  30.3195  30.8242
    31.6000  32.4388  32.9426  33.3597  34.4168  34.7939  35.1847  35.6662
    35.7263  36.3276  37.5062  37.8267

          k = 0.2010 0.0567-0.2460 ( 19805 PWs)   bands (ev):

   -74.5434 -74.5346 -74.5293 -74.5242 -74.5237 -74.5201 -54.4416 -54.4286
   -54.4172 -54.4043 -42.9419 -42.9418 -42.9358 -42.9356 -42.9352 -42.9351
   -42.9324 -42.9324 -42.9245 -42.9245 -42.9212 -42.9210 -42.9208 -42.9206
   -42.9201 -42.9200 -42.9195 -42.9194 -42.9189 -42.9187 -42.9184 -42.9183
   -42.9158 -42.9157 -42.9122 -42.9122 -42.9086 -42.9085 -42.9078 -42.9076
   -42.9076 -42.9074 -42.9072 -42.9071 -42.9069 -42.9067 -42.9066 -42.9065
   -42.9064 -42.9061 -42.9060 -42.9059 -28.7927 -28.7838 -28.7628 -28.7157
   -28.7108 -28.7090 -28.6784 -28.6728 -28.6638 -28.6601 -28.6453 -28.5945
   -28.5691 -28.5616 -28.5516 -28.5415 -28.5193 -28.5072 -22.4001 -22.3922
   -22.3578 -22.3437 -22.3083 -22.2830 -22.2795 -22.2583 -22.2250 -22.2118
   -22.1840 -22.1773  15.7931  17.4134  17.9904  17.9943  18.1017  18.3806
    18.7275  18.7724  19.0019  19.0258  19.1333  19.5816  19.5956  19.6013
    19.7210  19.8911  20.0065  20.1209  20.2057  20.3850  20.4074  20.5839
    20.6162  20.6592  20.9715  21.0042  21.1346  21.1912  21.3239  21.3514
    21.5548  21.7648  22.1260  22.1514  22.1838  22.3277  22.5752  22.5861
    22.6995  22.9493  22.9945  23.0446  23.0977  23.2047  23.8328  23.8759
    23.9836  24.0178  24.3529  24.4105  24.5919  24.6979  25.3932  25.4781
    26.0912  26.5301  27.1465  29.7363  30.2838  31.5471  31.7435  31.8573
    32.0273  32.2736  32.4635  33.6280  34.7322  34.7379  35.1510  35.5661
    36.2815  36.4335  36.5862  37.1198

          k = 0.2378 0.1257-0.0820 ( 19807 PWs)   bands (ev):

   -74.5436 -74.5344 -74.5297 -74.5235 -74.5229 -74.5212 -54.4407 -54.4309
   -54.4149 -54.4052 -42.9419 -42.9418 -42.9358 -42.9356 -42.9353 -42.9350
   -42.9324 -42.9324 -42.9245 -42.9245 -42.9212 -42.9210 -42.9208 -42.9205
   -42.9203 -42.9198 -42.9195 -42.9194 -42.9189 -42.9187 -42.9185 -42.9183
   -42.9158 -42.9157 -42.9122 -42.9122 -42.9086 -42.9085 -42.9078 -42.9076
   -42.9076 -42.9074 -42.9073 -42.9071 -42.9069 -42.9067 -42.9066 -42.9065
   -42.9063 -42.9061 -42.9060 -42.9060 -28.7934 -28.7717 -28.7551 -28.7320
   -28.7218 -28.6993 -28.6886 -28.6746 -28.6667 -28.6640 -28.6325 -28.5901
   -28.5641 -28.5617 -28.5515 -28.5464 -28.5153 -28.5112 -22.3974 -22.3963
   -22.3563 -22.3455 -22.3059 -22.2857 -22.2754 -22.2612 -22.2238 -22.2129
   -22.1804 -22.1802  15.6140  17.5087  17.9397  18.1766  18.4282  18.5641
    18.6401  18.7501  18.8554  18.9921  19.0140  19.2796  19.4540  19.5724
    19.8604  19.8854  20.1991  20.2166  20.2651  20.4673  20.5752  20.6437
    20.7048  20.7710  20.8702  20.9733  21.1191  21.1546  21.2692  21.3477
    21.4958  21.6882  22.0034  22.0680  22.1369  22.3263  22.4479  22.6779
    22.6881  22.8277  22.9209  23.0966  23.2229  23.4933  23.6359  23.8122
    24.0119  24.0846  24.2242  24.4019  24.5637  24.7230  25.2315  25.6174
    26.1948  26.4095  26.4740  30.4909  30.4929  31.3172  31.4454  31.5130
    32.1403  32.4309  34.0457  34.2452  34.6124  34.8432  35.2086  35.4914
    35.6515  35.9731  36.5172  36.9233

          k = 0.2746 0.3773 0.0820 ( 19827 PWs)   bands (ev):

   -74.5383 -74.5379 -74.5280 -74.5278 -74.5219 -74.5215 -54.4358 -54.4318
   -54.4141 -54.4100 -42.9418 -42.9418 -42.9359 -42.9355 -42.9353 -42.9350
   -42.9325 -42.9324 -42.9246 -42.9245 -42.9212 -42.9210 -42.9208 -42.9206
   -42.9203 -42.9198 -42.9196 -42.9194 -42.9188 -42.9186 -42.9184 -42.9182
   -42.9159 -42.9158 -42.9122 -42.9122 -42.9087 -42.9085 -42.9078 -42.9076
   -42.9075 -42.9074 -42.9072 -42.9071 -42.9070 -42.9067 -42.9066 -42.9065
   -42.9064 -42.9062 -42.9060 -42.9060 -28.7912 -28.7746 -28.7525 -28.7511
   -28.7138 -28.7084 -28.6994 -28.6663 -28.6541 -28.6230 -28.6097 -28.5957
   -28.5807 -28.5771 -28.5500 -28.5390 -28.5321 -28.5211 -22.4002 -22.3783
   -22.3519 -22.3500 -22.3106 -22.2990 -22.2687 -22.2535 -22.2171 -22.2160
   -22.1984 -22.1781  16.5940  17.1679  17.8543  18.0956  18.3668  18.4808
    18.4936  18.5369  18.7027  18.8462  18.8561  19.0008  19.1380  19.3639
    19.7173  19.8360  20.0242  20.0943  20.4094  20.7757  20.8457  20.8559
    21.0034  21.0071  21.0436  21.0797  21.1082  21.1919  21.4555  21.5276
    21.5846  21.6693  21.7758  21.9640  22.0350  22.1946  22.4106  22.4831
    22.7267  23.0052  23.2175  23.3131  23.5708  23.8584  23.8610  23.9457
    23.9668  24.0097  24.0445  24.2493  24.4560  24.4620  24.5111  24.5758
    26.6732  27.5236  28.3240  28.3637  29.1808  29.3146  31.5465  31.6241
    32.3488  32.3983  33.7434  34.3138  34.5516  35.1815  35.2956  35.4821
    36.6916  36.7482  37.7011  37.9831

          k = 0.3114 0.4462 0.2460 ( 19837 PWs)   bands (ev):

   -74.5405 -74.5350 -74.5301 -74.5253 -74.5226 -74.5219 -54.4381 -54.4267
   -54.4191 -54.4078 -42.9419 -42.9418 -42.9359 -42.9356 -42.9352 -42.9351
   -42.9325 -42.9324 -42.9246 -42.9245 -42.9212 -42.9210 -42.9207 -42.9206
   -42.9202 -42.9199 -42.9195 -42.9194 -42.9188 -42.9187 -42.9184 -42.9182
   -42.9159 -42.9158 -42.9122 -42.9122 -42.9087 -42.9085 -42.9078 -42.9076
   -42.9075 -42.9074 -42.9072 -42.9071 -42.9070 -42.9067 -42.9066 -42.9065
   -42.9064 -42.9062 -42.9060 -42.9060 -28.7865 -28.7776 -28.7508 -28.7492
   -28.7153 -28.7003 -28.6966 -28.6682 -28.6572 -28.6482 -28.6219 -28.5834
   -28.5799 -28.5590 -28.5522 -28.5389 -28.5362 -28.5185 -22.3958 -22.3873
   -22.3477 -22.3471 -22.3173 -22.2942 -22.2715 -22.2507 -22.2188 -22.2176
   -22.1914 -22.1824  16.6032  17.1589  18.0679  18.0711  18.2129  18.2369
    18.4965  18.5193  18.5707  18.9338  18.9604  19.0605  19.2631  19.5293
    19.5679  19.9308  20.0756  20.2026  20.5172  20.6574  20.6611  20.7096
    20.7992  20.9513  21.0246  21.0324  21.2140  21.3043  21.4539  21.5531
    21.6320  21.6822  21.7212  21.8600  22.2668  22.3369  22.4891  22.6097
    22.7141  22.9394  23.2626  23.2660  23.3889  23.4342  23.4985  23.6861
    23.7973  24.2414  24.3280  24.4265  24.4661  24.5790  24.8138  24.9560
    26.7919  26.9617  27.5519  28.4347  30.3731  30.4564  30.6627  30.7313
    31.9389  32.0779  34.0728  34.6134  34.7011  35.1811  35.6655  36.3675
    36.7080  37.0197  37.4302  37.4587

          k = 0.2010 0.2394-0.2460 ( 19824 PWs)   bands (ev):

   -74.5416 -74.5323 -74.5318 -74.5236 -74.5233 -74.5229 -54.4381 -54.4266
   -54.4192 -54.4078 -42.9419 -42.9418 -42.9358 -42.9356 -42.9352 -42.9351
   -42.9325 -42.9324 -42.9245 -42.9245 -42.9212 -42.9210 -42.9208 -42.9206
   -42.9201 -42.9200 -42.9195 -42.9193 -42.9189 -42.9186 -42.9184 -42.9183
   -42.9159 -42.9158 -42.9122 -42.9122 -42.9086 -42.9086 -42.9078 -42.9076
   -42.9075 -42.9073 -42.9072 -42.9071 -42.9069 -42.9067 -42.9066 -42.9065
   -42.9064 -42.9061 -42.9060 -42.9060 -28.7928 -28.7548 -28.7431 -28.7397
   -28.7256 -28.7057 -28.6979 -28.6931 -28.6786 -28.6400 -28.6171 -28.5711
   -28.5670 -28.5624 -28.5500 -28.5479 -28.5285 -28.5246 -22.3964 -22.3887
   -22.3479 -22.3474 -22.3145 -22.2942 -22.2688 -22.2544 -22.2203 -22.2160
   -22.1899 -22.1834  16.1988  17.6609  17.9491  18.0663  18.1158  18.4160
    18.5122  18.5700  18.6395  18.7505  18.8905  19.0062  19.0927  19.5787
    19.8885  20.2216  20.3798  20.3893  20.5090  20.5497  20.6018  20.7422
    20.7709  20.9582  21.0473  21.0926  21.1921  21.3259  21.3870  21.4339
    21.5845  21.5900  21.6927  21.8099  21.8784  22.2761  22.6226  22.7170
    22.8145  22.9200  23.2406  23.2804  23.3342  23.3675  23.5421  23.5794
    23.9234  24.2956  24.4894  24.5550  24.5569  24.7645  24.8629  25.1171
    25.7531  25.9055  26.0223  29.5277  30.0065  31.8336  31.9345  32.1086
    32.7107  33.0505  33.5780  33.7860  34.9431  34.9660  35.2581  35.3313
    35.6228  36.2339  36.9405  37.0734

          k = 0.2378 0.3084-0.0820 ( 19816 PWs)   bands (ev):

   -74.5407 -74.5347 -74.5299 -74.5254 -74.5230 -74.5216 -54.4359 -54.4316
   -54.4141 -54.4101 -42.9419 -42.9418 -42.9359 -42.9356 -42.9353 -42.9350
   -42.9325 -42.9324 -42.9246 -42.9245 -42.9212 -42.9210 -42.9208 -42.9205
   -42.9203 -42.9199 -42.9196 -42.9193 -42.9188 -42.9186 -42.9184 -42.9183
   -42.9159 -42.9158 -42.9122 -42.9122 -42.9087 -42.9085 -42.9078 -42.9076
   -42.9075 -42.9074 -42.9072 -42.9071 -42.9070 -42.9067 -42.9066 -42.9065
   -42.9064 -42.9062 -42.9060 -42.9060 -28.7950 -28.7550 -28.7438 -28.7430
   -28.7248 -28.7166 -28.7020 -28.6836 -28.6704 -28.6260 -28.6066 -28.5818
   -28.5728 -28.5672 -28.5544 -28.5379 -28.5357 -28.5231 -22.4008 -22.3801
   -22.3511 -22.3504 -22.3066 -22.3007 -22.2619 -22.2612 -22.2184 -22.2148
   -22.1974 -22.1784  16.2083  17.5874  17.9054  18.1821  18.3116  18.3412
    18.4603  18.4990  18.6597  18.7491  18.7898  18.9001  19.2169  19.6056
    20.0276  20.1371  20.3046  20.3613  20.4807  20.5034  20.6307  20.7028
    20.8267  21.0043  21.0632  21.1390  21.2633  21.3394  21.3826  21.4715
    21.6300  21.7038  21.7663  21.7800  21.8208  22.2187  22.4328  22.6727
    23.0302  23.0323  23.0619  23.0884  23.2996  23.4410  23.5947  23.6590
    23.9154  23.9642  24.3916  24.6329  24.6896  24.7499  24.7694  24.8928
    25.5571  26.2352  26.7089  28.9844  29.8934  31.4839  32.3754  32.5983
    32.9864  33.2929  33.5144  33.7520  34.5356  34.6927  35.0168  35.4227
    35.6811  36.1743  36.6680  36.8853

          k = 0.2746 0.5600 0.0820 ( 19834 PWs)   bands (ev):

   -74.5360 -74.5342 -74.5325 -74.5278 -74.5239 -74.5210 -54.4322 -54.4275
   -54.4184 -54.4136 -42.9418 -42.9418 -42.9359 -42.9355 -42.9353 -42.9350
   -42.9325 -42.9324 -42.9246 -42.9245 -42.9212 -42.9210 -42.9208 -42.9205
   -42.9203 -42.9198 -42.9196 -42.9194 -42.9188 -42.9186 -42.9184 -42.9182
   -42.9160 -42.9159 -42.9122 -42.9122 -42.9087 -42.9085 -42.9077 -42.9075
   -42.9075 -42.9074 -42.9072 -42.9071 -42.9070 -42.9067 -42.9067 -42.9066
   -42.9064 -42.9062 -42.9060 -42.9060 -28.7805 -28.7790 -28.7693 -28.7502
   -28.7146 -28.7035 -28.6746 -28.6655 -28.6489 -28.6353 -28.6171 -28.5799
   -28.5691 -28.5653 -28.5600 -28.5523 -28.5509 -28.5233 -22.3921 -22.3757
   -22.3513 -22.3343 -22.3320 -22.3081 -22.2614 -22.2409 -22.2248 -22.2111
   -22.2024 -22.1882  17.2991  17.4021  17.5872  17.9831  18.2008  18.3873
    18.4396  18.4536  18.5749  18.8197  18.9660  19.0381  19.1012  19.1172
    19.6342  19.7308  19.8082  19.8982  20.5628  20.7200  20.7358  20.8381
    20.9035  21.0340  21.0560  21.1611  21.2270  21.3014  21.4170  21.5752
    21.7618  21.9555  22.0174  22.0355  22.1452  22.3688  22.6169  22.6814
    22.6990  22.9132  23.0305  23.2309  23.7557  23.8001  23.8442  23.9186
    23.9550  24.1590  24.3110  24.3497  24.3888  24.4605  24.4684  24.5656
    25.4563  27.3254  27.5154  28.0319  28.7113  28.9060  30.5592  31.0795
    32.9976  33.3929  34.1884  34.6416  35.6290  36.0695  36.4922  36.8660
    37.0308  37.2224  37.9023  38.2536

          k = 0.3114 0.6289 0.2460 ( 19836 PWs)   bands (ev):

   -74.5375 -74.5346 -74.5306 -74.5257 -74.5245 -74.5225 -54.4327 -54.4263
   -54.4195 -54.4132 -42.9418 -42.9418 -42.9359 -42.9356 -42.9352 -42.9351
   -42.9325 -42.9324 -42.9245 -42.9245 -42.9212 -42.9210 -42.9207 -42.9206
   -42.9202 -42.9199 -42.9195 -42.9194 -42.9188 -42.9186 -42.9184 -42.9182
   -42.9160 -42.9159 -42.9122 -42.9122 -42.9086 -42.9086 -42.9077 -42.9075
   -42.9075 -42.9073 -42.9072 -42.9071 -42.9070 -42.9068 -42.9066 -42.9066
   -42.9064 -42.9062 -42.9060 -42.9060 -28.7882 -28.7665 -28.7518 -28.7409
   -28.7156 -28.7092 -28.6950 -28.6918 -28.6613 -28.6185 -28.6109 -28.5780
   -28.5737 -28.5590 -28.5544 -28.5519 -28.5366 -28.5360 -22.3888 -22.3826
   -22.3482 -22.3429 -22.3202 -22.3107 -22.2570 -22.2500 -22.2173 -22.2145
   -22.1982 -22.1921  17.1280  17.3828  17.6866  18.1130  18.2955  18.3808
    18.3956  18.5490  18.5632  18.6890  18.8187  18.8303  18.9669  19.2810
    19.6547  19.9297  19.9308  20.1350  20.5572  20.7348  20.8228  20.8313
    20.9336  21.0738  21.1259  21.1943  21.2553  21.3222  21.4894  21.5323
    21.5395  21.7380  21.7875  21.9393  22.1597  22.2773  22.4475  22.6314
    22.7109  23.3204  23.4433  23.4853  23.5097  23.5852  23.6578  23.7355
    23.8782  24.0358  24.0822  24.4463  24.4501  24.4685  24.6155  25.2386
    25.4848  26.6625  26.9941  28.1682  28.2561  29.2677  31.4036  32.3639
    32.8083  33.4549  33.7944  34.6967  34.9260  35.1388  36.6214  36.8940
    37.2485  37.4527  37.6875  37.8165

          k = 0.2010 0.4221-0.2460 ( 19819 PWs)   bands (ev):

   -74.5376 -74.5343 -74.5296 -74.5281 -74.5237 -74.5220 -54.4319 -54.4281
   -54.4177 -54.4141 -42.9418 -42.9418 -42.9359 -42.9356 -42.9352 -42.9351
   -42.9325 -42.9324 -42.9246 -42.9245 -42.9212 -42.9210 -42.9208 -42.9206
   -42.9201 -42.9200 -42.9195 -42.9193 -42.9188 -42.9186 -42.9183 -42.9182
   -42.9160 -42.9159 -42.9122 -42.9122 -42.9087 -42.9085 -42.9077 -42.9076
   -42.9075 -42.9073 -42.9072 -42.9071 -42.9069 -42.9068 -42.9067 -42.9065
   -42.9064 -42.9062 -42.9060 -42.9060 -28.7944 -28.7605 -28.7485 -28.7448
   -28.7133 -28.7108 -28.7001 -28.6824 -28.6713 -28.6062 -28.6002 -28.5841
   -28.5769 -28.5633 -28.5571 -28.5548 -28.5497 -28.5210 -22.3959 -22.3684
   -22.3508 -22.3498 -22.3159 -22.3119 -22.2574 -22.2488 -22.2161 -22.2115
   -22.2110 -22.1850  16.9686  17.5560  17.8757  18.0072  18.0854  18.1496
    18.3227  18.4484  18.5663  18.8536  18.8695  18.9715  19.1803  19.5726
    19.9064  20.0585  20.0945  20.1483  20.1550  20.3722  20.4695  20.5529
    20.7232  20.9160  21.0788  21.1638  21.3141  21.3859  21.6513  21.7099
    21.8661  21.8850  22.0805  22.0943  22.2719  22.4577  22.5569  22.6594
    22.9529  23.0149  23.1720  23.2288  23.2707  23.4248  23.6954  23.7874
    23.8290  23.9498  24.2189  24.4337  24.4343  24.5616  24.7389  25.2311
    25.3263  26.4883  26.6722  27.1458  28.5836  30.9314  31.8133  32.7316
    32.9095  33.3483  34.2271  34.6318  34.8751  35.0811  35.5679  36.3105
    36.7007  36.8928  37.1158  37.4903

          k = 0.2378 0.4911-0.0820 ( 19836 PWs)   bands (ev):

   -74.5362 -74.5341 -74.5308 -74.5299 -74.5236 -74.5207 -54.4305 -54.4300
   -54.4160 -54.4153 -42.9418 -42.9418 -42.9359 -42.9356 -42.9353 -42.9350
   -42.9325 -42.9324 -42.9246 -42.9245 -42.9212 -42.9210 -42.9208 -42.9205
   -42.9202 -42.9199 -42.9196 -42.9193 -42.9188 -42.9186 -42.9184 -42.9182
   -42.9160 -42.9159 -42.9122 -42.9122 -42.9087 -42.9085 -42.9077 -42.9076
   -42.9075 -42.9074 -42.9072 -42.9071 -42.9070 -42.9067 -42.9067 -42.9066
   -42.9064 -42.9062 -42.9060 -42.9060 -28.7937 -28.7661 -28.7658 -28.7538
   -28.7179 -28.6921 -28.6822 -28.6713 -28.6588 -28.6108 -28.6006 -28.5916
   -28.5817 -28.5718 -28.5584 -28.5544 -28.5505 -28.5179 -22.3967 -22.3609
   -22.3535 -22.3503 -22.3234 -22.3082 -22.2616 -22.2397 -22.2236 -22.2118
   -22.2095 -22.1834  17.1031  17.4668  17.7128  18.0785  18.1563  18.1793
    18.3309  18.3446  18.6129  18.7617  19.1224  19.1511  19.3858  19.5436
    19.6774  19.8229  19.8567  20.0668  20.1247  20.2041  20.4263  20.6285
    20.6428  20.9318  20.9985  21.1477  21.3409  21.5082  21.5943  21.7832
    22.0133  22.0596  22.1709  22.2333  22.3662  22.4659  22.5062  22.5441
    22.7425  22.7869  23.1673  23.5002  23.5915  23.6855  23.7751  23.8189
    23.9779  23.9930  24.0285  24.1469  24.3531  24.5544  24.6067  24.6727
    25.4826  26.5903  27.2029  27.4886  29.0868  29.4762  31.0827  32.8399
    33.0546  33.2547  34.2635  34.9264  35.0657  35.3210  36.3392  36.4934
    36.6581  36.6938  36.8188  37.2368

          k = 0.2746-0.3535 0.0820 ( 19837 PWs)   bands (ev):

   -74.5382 -74.5329 -74.5290 -74.5285 -74.5262 -74.5205 -54.4328 -54.4262
   -54.4196 -54.4131 -42.9418 -42.9418 -42.9359 -42.9355 -42.9353 -42.9350
   -42.9325 -42.9324 -42.9245 -42.9245 -42.9212 -42.9210 -42.9207 -42.9205
   -42.9203 -42.9198 -42.9196 -42.9194 -42.9188 -42.9186 -42.9184 -42.9182
   -42.9160 -42.9159 -42.9122 -42.9122 -42.9086 -42.9086 -42.9077 -42.9075
   -42.9075 -42.9074 -42.9072 -42.9071 -42.9070 -42.9068 -42.9067 -42.9066
   -42.9064 -42.9062 -42.9060 -42.9060 -28.7843 -28.7770 -28.7644 -28.7456
   -28.7050 -28.7032 -28.6932 -28.6908 -28.6377 -28.6346 -28.5879 -28.5861
   -28.5779 -28.5692 -28.5523 -28.5510 -28.5416 -28.5375 -22.3884 -22.3825
   -22.3496 -22.3411 -22.3236 -22.3090 -22.2554 -22.2496 -22.2178 -22.2155
   -22.1978 -22.1922  16.5626  17.7662  17.9333  17.9646  18.3195  18.3737
    18.4333  18.4871  18.5922  18.6563  18.8447  18.9168  19.2847  19.5310
    19.5515  19.8632  20.0654  20.3023  20.3372  20.5437  20.5920  20.7989
    20.9081  20.9606  20.9908  21.0711  21.2167  21.3341  21.4134  21.4502
    21.5200  21.6378  22.1124  22.2050  22.3136  22.3146  22.4143  22.5861
    22.7617  23.2789  23.3447  23.4257  23.4533  23.5706  23.6513  23.7964
    24.2668  24.3972  24.4211  24.4412  24.4646  24.4943  24.6838  25.1271
    25.4622  25.8559  26.7864  27.1251  28.4498  30.5777  30.7225  32.1580
    32.3161  32.7767  34.1725  35.1708  35.1738  35.6775  36.0410  37.0876
    37.4048  37.7695  37.8127  38.5752

          k = 0.3114-0.2846 0.2460 ( 19846 PWs)   bands (ev):

   -74.5380 -74.5335 -74.5305 -74.5273 -74.5237 -74.5223 -54.4322 -54.4275
   -54.4185 -54.4136 -42.9418 -42.9418 -42.9359 -42.9356 -42.9352 -42.9351
   -42.9325 -42.9324 -42.9246 -42.9245 -42.9212 -42.9210 -42.9207 -42.9206
   -42.9202 -42.9199 -42.9195 -42.9194 -42.9188 -42.9186 -42.9184 -42.9182
   -42.9160 -42.9159 -42.9122 -42.9122 -42.9087 -42.9085 -42.9077 -42.9076
   -42.9075 -42.9073 -42.9072 -42.9071 -42.9069 -42.9068 -42.9067 -42.9066
   -42.9064 -42.9062 -42.9060 -42.9060 -28.7921 -28.7716 -28.7479 -28.7432
   -28.7283 -28.7126 -28.6826 -28.6773 -28.6490 -28.6365 -28.5891 -28.5816
   -28.5698 -28.5685 -28.5611 -28.5541 -28.5534 -28.5207 -22.3925 -22.3751
   -22.3524 -22.3366 -22.3319 -22.3056 -22.2604 -22.2400 -22.2252 -22.2126
   -22.2027 -22.1875  16.7482  17.6632  17.8885  17.9155  18.0775  18.3684
    18.5078  18.5237  18.6270  18.6351  19.0038  19.0678  19.2441  19.3334
    19.7239  19.9262  19.9460  20.0892  20.2469  20.4315  20.6387  20.7013
    20.8275  20.9136  21.0316  21.1064  21.1984  21.3581  21.4448  21.5941
    21.7087  21.8538  21.9419  22.0228  22.2252  22.3501  22.4597  22.7696
    22.9585  22.9612  23.2821  23.4617  23.4827  23.6967  23.8014  24.0582
    24.1983  24.2462  24.3095  24.3470  24.3979  24.4902  24.5037  25.3650
    26.0189  26.1956  26.4860  27.0787  28.6412  28.7869  31.6395  32.2525
    32.7997  33.1575  33.4814  34.6681  35.2520  35.5085  36.3967  36.8294
    36.9686  37.4386  38.1692  38.4190

          k = 0.2010-0.4914-0.2460 ( 19843 PWs)   bands (ev):

   -74.5361 -74.5339 -74.5328 -74.5276 -74.5239 -74.5211 -54.4305 -54.4300
   -54.4160 -54.4152 -42.9418 -42.9418 -42.9359 -42.9356 -42.9352 -42.9351
   -42.9325 -42.9324 -42.9246 -42.9245 -42.9212 -42.9210 -42.9208 -42.9206
   -42.9201 -42.9200 -42.9195 -42.9193 -42.9188 -42.9185 -42.9183 -42.9182
   -42.9160 -42.9159 -42.9122 -42.9122 -42.9087 -42.9085 -42.9077 -42.9076
   -42.9075 -42.9074 -42.9072 -42.9070 -42.9069 -42.9068 -42.9067 -42.9065
   -42.9064 -42.9062 -42.9060 -42.9060 -28.7957 -28.7637 -28.7635 -28.7572
   -28.7203 -28.7188 -28.6744 -28.6470 -28.6369 -28.6288 -28.5987 -28.5957
   -28.5819 -28.5691 -28.5674 -28.5511 -28.5509 -28.5183 -22.3970 -22.3609
   -22.3531 -22.3509 -22.3234 -22.3069 -22.2613 -22.2387 -22.2243 -22.2119
   -22.2111 -22.1829  17.2526  17.3332  17.7369  17.9884  17.9997  18.1956
    18.3245  18.4039  18.5386  19.0114  19.0232  19.1736  19.3320  19.5180
    19.5751  19.6768  19.9702  20.0036  20.0954  20.4297  20.4667  20.5816
    20.7264  20.8427  21.1082  21.2364  21.3187  21.4764  21.6585  21.8335
    21.9241  22.0979  22.1541  22.2349  22.3286  22.4018  22.4391  22.6667
    22.8759  23.0252  23.0542  23.1348  23.5047  23.6589  23.6873  23.7856
    23.9588  24.0113  24.1526  24.3070  24.3607  24.6130  24.6246  24.9560
    25.9595  26.6131  27.2219  27.4130  28.4106  29.7422  30.3457  31.5484
    32.3153  32.9683  34.4380  34.8550  35.4520  36.1213  36.7412  36.8730
    36.9170  37.2554  37.3071  37.9553

          k = 0.2378-0.4224-0.0820 ( 19862 PWs)   bands (ev):

   -74.5366 -74.5333 -74.5312 -74.5294 -74.5250 -74.5199 -54.4320 -54.4281
   -54.4177 -54.4140 -42.9418 -42.9418 -42.9359 -42.9356 -42.9353 -42.9350
   -42.9325 -42.9324 -42.9246 -42.9245 -42.9212 -42.9210 -42.9208 -42.9206
   -42.9202 -42.9199 -42.9196 -42.9193 -42.9188 -42.9185 -42.9184 -42.9182
   -42.9160 -42.9159 -42.9122 -42.9122 -42.9087 -42.9085 -42.9077 -42.9075
   -42.9075 -42.9074 -42.9072 -42.9070 -42.9069 -42.9068 -42.9067 -42.9066
   -42.9064 -42.9062 -42.9060 -42.9060 -28.7878 -28.7746 -28.7735 -28.7535
   -28.7178 -28.7021 -28.6896 -28.6514 -28.6227 -28.6221 -28.6047 -28.6028
   -28.5799 -28.5697 -28.5619 -28.5500 -28.5485 -28.5269 -22.3960 -22.3681
   -22.3505 -22.3489 -22.3156 -22.3133 -22.2575 -22.2475 -22.2166 -22.2127
   -22.2111 -22.1847  16.7928  17.6216  17.8099  18.0876  18.1796  18.2677
    18.2962  18.4446  18.7234  18.7609  19.0046  19.0081  19.2181  19.3387
    19.6048  19.7519  20.0887  20.1302  20.1929  20.4835  20.5529  20.5711
    20.7340  20.8865  21.0762  21.2643  21.4131  21.5233  21.6923  21.7078
    21.8287  21.8961  22.0353  22.0532  22.3267  22.3644  22.4775  22.5344
    22.9208  23.0312  23.2816  23.3224  23.5024  23.5604  23.8285  23.8808
    23.9381  24.0712  24.1618  24.2153  24.3017  24.4974  24.8626  25.0085
    25.3673  25.9637  27.3948  27.9179  28.6532  29.4300  30.6720  32.0391
    32.4225  33.0703  33.6546  35.0316  35.1849  35.9916  36.4031  37.2047
    37.5027  37.5254  37.6696  37.8218

          k = 0.2746-0.1708 0.0820 ( 19838 PWs)   bands (ev):

   -74.5418 -74.5327 -74.5293 -74.5257 -74.5256 -74.5203 -54.4381 -54.4268
   -54.4191 -54.4078 -42.9419 -42.9418 -42.9359 -42.9355 -42.9353 -42.9350
   -42.9325 -42.9324 -42.9246 -42.9245 -42.9212 -42.9210 -42.9208 -42.9205
   -42.9203 -42.9197 -42.9196 -42.9194 -42.9188 -42.9186 -42.9185 -42.9182
   -42.9159 -42.9158 -42.9122 -42.9122 -42.9087 -42.9085 -42.9078 -42.9076
   -42.9075 -42.9074 -42.9072 -42.9071 -42.9069 -42.9067 -42.9067 -42.9066
   -42.9063 -42.9062 -42.9060 -42.9060 -28.7899 -28.7785 -28.7618 -28.7341
   -28.7213 -28.7049 -28.6841 -28.6746 -28.6628 -28.6480 -28.5995 -28.5839
   -28.5690 -28.5688 -28.5574 -28.5475 -28.5336 -28.5200 -22.3966 -22.3860
   -22.3493 -22.3485 -22.3181 -22.2933 -22.2687 -22.2501 -22.2197 -22.2179
   -22.1913 -22.1823  15.8649  17.7646  17.9428  18.2172  18.3046  18.5433
    18.6008  18.6508  18.7140  18.8442  19.0084  19.1613  19.2904  19.4980
    19.5503  19.7432  20.1347  20.1594  20.4320  20.4813  20.5451  20.5909
    20.7924  20.9926  20.9975  21.0619  21.2631  21.3079  21.4109  21.4587
    21.5388  21.5452  21.6916  22.0640  22.2311  22.3417  22.4899  22.5830
    22.8172  22.9254  23.0864  23.3062  23.3817  23.6426  23.8298  23.9305
    24.2509  24.3228  24.3798  24.4374  24.4978  24.5197  24.7520  25.2246
    26.0303  26.5765  27.0141  27.2975  29.2231  30.6357  31.4569  31.8633
    31.8642  32.5958  33.0743  33.9582  34.5541  35.0745  36.0219  37.0292
    37.6277  38.1801  38.5048  38.5250

          k = 0.3114-0.1019 0.2460 ( 19832 PWs)   bands (ev):

   -74.5402 -74.5358 -74.5295 -74.5253 -74.5224 -74.5222 -54.4358 -54.4318
   -54.4141 -54.4100 -42.9418 -42.9418 -42.9358 -42.9356 -42.9352 -42.9351
   -42.9325 -42.9324 -42.9246 -42.9245 -42.9212 -42.9210 -42.9207 -42.9206
   -42.9202 -42.9198 -42.9195 -42.9194 -42.9188 -42.9186 -42.9185 -42.9182
   -42.9159 -42.9158 -42.9122 -42.9122 -42.9087 -42.9085 -42.9077 -42.9076
   -42.9076 -42.9074 -42.9073 -42.9070 -42.9069 -42.9067 -42.9066 -42.9066
   -42.9064 -42.9062 -42.9060 -42.9059 -28.7945 -28.7739 -28.7545 -28.7508
   -28.7311 -28.7108 -28.6763 -28.6620 -28.6506 -28.6401 -28.5974 -28.5913
   -28.5763 -28.5678 -28.5553 -28.5522 -28.5365 -28.5184 -22.4012 -22.3773
   -22.3542 -22.3490 -22.3111 -22.2973 -22.2668 -22.2533 -22.2185 -22.2171
   -22.1983 -22.1776  16.2871  17.2365  18.0242  18.2085  18.2280  18.4678
    18.5513  18.6254  18.6510  18.8445  18.8949  18.8975  19.2511  19.6302
    19.6760  19.7916  19.9208  20.0717  20.2875  20.4506  20.7393  20.8174
    20.9586  21.0489  21.1378  21.3480  21.4154  21.4201  21.4722  21.5277
    21.5587  21.6278  21.6472  21.9799  22.0676  22.3936  22.4060  22.5019
    22.7156  22.7486  23.1889  23.3308  23.4397  23.5870  23.6712  23.7072
    23.8801  23.9982  24.3091  24.4022  24.4224  24.4844  25.0882  25.5702
    26.8127  27.5234  27.9077  27.9627  28.3431  29.1433  30.3149  31.3156
    31.8603  32.4450  32.5360  33.9247  34.9612  35.7419  36.7537  37.2631
    37.5835  37.8333  38.0555  38.3755

          k = 0.2010-0.3087-0.2460 ( 19851 PWs)   bands (ev):

   -74.5391 -74.5369 -74.5286 -74.5266 -74.5241 -74.5200 -54.4359 -54.4317
   -54.4141 -54.4100 -42.9418 -42.9418 -42.9358 -42.9356 -42.9352 -42.9351
   -42.9325 -42.9324 -42.9246 -42.9245 -42.9212 -42.9210 -42.9208 -42.9207
   -42.9201 -42.9200 -42.9195 -42.9193 -42.9188 -42.9186 -42.9184 -42.9183
   -42.9159 -42.9158 -42.9122 -42.9122 -42.9087 -42.9085 -42.9077 -42.9076
   -42.9075 -42.9074 -42.9072 -42.9070 -42.9069 -42.9067 -42.9067 -42.9065
   -42.9064 -42.9062 -42.9060 -42.9059 -28.7938 -28.7770 -28.7691 -28.7482
   -28.7221 -28.7093 -28.6861 -28.6629 -28.6366 -28.6139 -28.6103 -28.5978
   -28.5778 -28.5615 -28.5584 -28.5512 -28.5384 -28.5256 -22.4016 -22.3806
   -22.3510 -22.3476 -22.3058 -22.3011 -22.2614 -22.2608 -22.2185 -22.2179
   -22.1975 -22.1779  16.4712  17.0467  18.0647  18.2633  18.2653  18.4662
    18.4945  18.5625  18.6609  18.6971  18.7917  18.8545  19.0220  19.5240
    19.8235  19.8957  20.0120  20.1619  20.1978  20.4081  20.4794  21.0117
    21.2612  21.3041  21.3284  21.3644  21.4379  21.4566  21.5053  21.7035
    21.7266  21.8372  21.9072  22.0067  22.1095  22.1909  22.2158  22.2259
    22.4383  22.8191  23.2010  23.3349  23.4012  23.4264  23.5750  23.7416
    23.8186  24.0256  24.0629  24.1579  24.1644  24.4819  24.6406  26.1029
    27.1667  27.3030  27.9002  28.1520  28.6014  29.4141  30.4346  31.1527
    31.8923  32.4035  32.7551  33.8157  35.1150  35.2609  35.9974  37.0215
    37.2914  37.9392  37.9663  38.0354

          k = 0.2378-0.2397-0.0820 ( 19835 PWs)   bands (ev):

   -74.5413 -74.5330 -74.5286 -74.5271 -74.5260 -74.5193 -54.4381 -54.4267
   -54.4191 -54.4078 -42.9419 -42.9418 -42.9359 -42.9356 -42.9353 -42.9350
   -42.9325 -42.9324 -42.9246 -42.9245 -42.9212 -42.9210 -42.9208 -42.9206
   -42.9202 -42.9198 -42.9196 -42.9194 -42.9188 -42.9186 -42.9184 -42.9183
   -42.9159 -42.9158 -42.9122 -42.9122 -42.9086 -42.9086 -42.9077 -42.9076
   -42.9075 -42.9074 -42.9072 -42.9071 -42.9069 -42.9067 -42.9067 -42.9065
   -42.9064 -42.9062 -42.9060 -42.9060 -28.7849 -28.7817 -28.7769 -28.7360
   -28.7077 -28.7019 -28.6947 -28.6841 -28.6481 -28.6215 -28.6131 -28.5889
   -28.5680 -28.5677 -28.5522 -28.5486 -28.5324 -28.5313 -22.3964 -22.3890
   -22.3482 -22.3461 -22.3155 -22.2944 -22.2667 -22.2542 -22.2201 -22.2180
   -22.1903 -22.1830  15.9401  17.7053  18.1192  18.1975  18.2910  18.4261
    18.6099  18.6228  18.6499  18.7481  18.8686  19.0125  19.0716  19.1826
    19.8744  20.0059  20.1503  20.2832  20.3139  20.4493  20.5269  20.8880
    21.0612  21.0765  21.1003  21.2052  21.2357  21.4409  21.5227  21.6100
    21.6711  21.7484  21.8778  21.9286  22.0163  22.1158  22.2895  22.7774
    22.8290  22.9288  23.0428  23.0946  23.3334  23.3815  23.6497  23.7015
    23.7499  24.0223  24.0553  24.1739  24.5383  24.6898  25.0960  26.1787
    26.3124  26.5144  26.8364  27.1185  29.8623  30.4226  31.4873  31.6529
    32.2597  32.9395  33.1077  33.8275  34.6230  34.7682  35.3838  36.7304
    36.8924  37.3601  37.5064  38.4990

          k = 0.2746 0.0119 0.0820 ( 19834 PWs)   bands (ev):

   -74.5430 -74.5359 -74.5283 -74.5238 -74.5234 -74.5208 -54.4398 -54.4326
   -54.4132 -54.4060 -42.9419 -42.9418 -42.9358 -42.9355 -42.9353 -42.9350
   -42.9324 -42.9324 -42.9246 -42.9245 -42.9212 -42.9210 -42.9208 -42.9205
   -42.9203 -42.9197 -42.9196 -42.9194 -42.9189 -42.9187 -42.9185 -42.9183
   -42.9158 -42.9157 -42.9122 -42.9122 -42.9086 -42.9085 -42.9078 -42.9077
   -42.9076 -42.9074 -42.9073 -42.9071 -42.9069 -42.9067 -42.9066 -42.9065
   -42.9063 -42.9061 -42.9060 -42.9059 -28.7871 -28.7855 -28.7600 -28.7407
   -28.7217 -28.6988 -28.6796 -28.6736 -28.6612 -28.6472 -28.6226 -28.6005
   -28.5699 -28.5650 -28.5552 -28.5423 -28.5164 -28.5128 -22.4020 -22.3893
   -22.3584 -22.3462 -22.3044 -22.2878 -22.2736 -22.2616 -22.2230 -22.2131
   -22.1854 -22.1758  15.6415  17.2933  17.9921  18.4354  18.5456  18.5864
    18.6560  18.8169  18.9222  19.0199  19.0645  19.1363  19.2613  19.5266
    19.5721  19.7339  19.9134  20.2505  20.2564  20.4258  20.4271  20.7430
    20.8689  20.9766  21.0149  21.0803  21.1177  21.1858  21.2407  21.2977
    21.4569  21.6380  21.9726  21.9972  22.1267  22.4671  22.4746  22.6468
    22.8421  22.9158  22.9909  23.0292  23.1040  23.3665  23.6629  23.7431
    24.1456  24.2047  24.2715  24.2726  24.4129  24.4346  25.4071  25.9049
    26.7296  26.7477  28.8923  29.1598  29.2251  30.0253  30.5242  30.6783
    31.7658  32.2057  32.5837  33.2678  35.1050  35.8422  36.0465  36.4933
    36.7613  36.9647  37.7661  38.0231

          k = 0.3114 0.0808 0.2460 ( 19836 PWs)   bands (ev):

   -74.5403 -74.5396 -74.5273 -74.5250 -74.5224 -74.5208 -54.4375 -54.4359
   -54.4099 -54.4084 -42.9419 -42.9418 -42.9358 -42.9356 -42.9352 -42.9351
   -42.9324 -42.9324 -42.9246 -42.9245 -42.9212 -42.9210 -42.9208 -42.9206
   -42.9202 -42.9198 -42.9195 -42.9194 -42.9189 -42.9187 -42.9185 -42.9183
   -42.9158 -42.9157 -42.9122 -42.9122 -42.9086 -42.9085 -42.9078 -42.9077
   -42.9076 -42.9074 -42.9072 -42.9070 -42.9070 -42.9067 -42.9066 -42.9065
   -42.9063 -42.9061 -42.9060 -42.9059 -28.7918 -28.7866 -28.7592 -28.7453
   -28.7281 -28.6976 -28.6766 -28.6766 -28.6568 -28.6324 -28.6041 -28.5930
   -28.5899 -28.5752 -28.5457 -28.5417 -28.5204 -28.5189 -22.4011 -22.3929
   -22.3512 -22.3493 -22.2967 -22.2949 -22.2691 -22.2669 -22.2197 -22.2190
   -22.1835 -22.1767  16.2609  16.6032  18.1976  18.2182  18.3358  18.5742
    18.6493  18.7407  18.8002  18.8268  18.8764  19.0347  19.2566  19.5488
    19.7173  19.9232  20.0595  20.1123  20.2273  20.3855  20.8080  20.8742
    20.9569  20.9701  21.1115  21.2473  21.2579  21.3610  21.4138  21.4897
    21.5240  21.6227  21.7415  21.8843  22.1892  22.2281  22.3422  22.3950
    22.4989  22.6441  23.0733  23.1849  23.3279  23.4809  23.7988  23.9091
    23.9337  24.0173  24.2639  24.3157  24.3637  24.4806  24.5397  27.3145
    27.6202  28.0488  28.1475  28.6565  29.0030  29.2850  30.5284  30.6221
    31.4770  31.8640  32.4953  32.6217  34.3485  35.5696  35.6757  35.9100
    36.7512  37.6567  38.1094  38.2090

          k = 0.2010-0.1260-0.2460 ( 19828 PWs)   bands (ev):

   -74.5426 -74.5363 -74.5274 -74.5258 -74.5239 -74.5193 -54.4408 -54.4309
   -54.4149 -54.4052 -42.9419 -42.9418 -42.9358 -42.9356 -42.9352 -42.9351
   -42.9324 -42.9324 -42.9245 -42.9245 -42.9212 -42.9210 -42.9208 -42.9206
   -42.9201 -42.9200 -42.9195 -42.9194 -42.9189 -42.9187 -42.9185 -42.9183
   -42.9158 -42.9157 -42.9122 -42.9122 -42.9086 -42.9085 -42.9078 -42.9077
   -42.9076 -42.9074 -42.9072 -42.9071 -42.9069 -42.9067 -42.9066 -42.9065
   -42.9064 -42.9061 -42.9060 -42.9059 -28.7927 -28.7897 -28.7710 -28.7226
   -28.7194 -28.6922 -28.6833 -28.6788 -28.6666 -28.6324 -28.6176 -28.6022
   -28.5726 -28.5718 -28.5489 -28.5419 -28.5221 -28.5143 -22.3974 -22.3973
   -22.3535 -22.3453 -22.3054 -22.2863 -22.2756 -22.2609 -22.2238 -22.2154
   -22.1804 -22.1798  15.8850  17.1454  18.1016  18.1232  18.2768  18.4149
    18.5082  18.8162  18.8958  18.9818  19.0256  19.0708  19.3648  19.5648
    19.7267  19.9505  20.0467  20.2181  20.3755  20.4213  20.5623  20.6930
    20.7833  20.8466  20.9167  21.2048  21.3280  21.3347  21.3820  21.4488
    21.5965  21.8906  22.0033  22.0693  22.1078  22.2660  22.3884  22.5797
    22.7079  22.7747  22.9151  23.0369  23.3129  23.4053  23.4943  23.6524
    23.7360  23.9111  24.0553  24.2891  24.7190  24.7323  24.8229  26.4587
    27.0004  27.7066  27.7788  28.6894  29.0228  30.3811  30.7320  31.3674
    32.0959  32.1945  33.2434  33.9312  34.0090  34.3348  35.1445  36.2774
    36.3509  36.6697  36.7142  37.2421

          k = 0.2378-0.0570-0.0820 ( 19833 PWs)   bands (ev):

   -74.5438 -74.5336 -74.5292 -74.5249 -74.5244 -74.5195 -54.4416 -54.4286
   -54.4172 -54.4043 -42.9419 -42.9418 -42.9358 -42.9356 -42.9353 -42.9350
   -42.9324 -42.9324 -42.9245 -42.9245 -42.9212 -42.9210 -42.9208 -42.9205
   -42.9202 -42.9198 -42.9196 -42.9194 -42.9189 -42.9187 -42.9185 -42.9183
   -42.9158 -42.9157 -42.9122 -42.9122 -42.9086 -42.9085 -42.9078 -42.9076
   -42.9076 -42.9074 -42.9072 -42.9071 -42.9069 -42.9067 -42.9066 -42.9065
   -42.9064 -42.9061 -42.9060 -42.9059 -28.7885 -28.7884 -28.7707 -28.7163
   -28.7031 -28.7002 -28.6869 -28.6868 -28.6646 -28.6410 -28.6403 -28.5978
   -28.5688 -28.5632 -28.5531 -28.5430 -28.5178 -28.5095 -22.4006 -22.3916
   -22.3586 -22.3442 -22.3087 -22.2836 -22.2773 -22.2585 -22.2249 -22.2117
   -22.1839 -22.1773  15.5102  17.5920  17.9698  18.2151  18.2865  18.5989
    18.7059  18.9877  19.0019  19.1378  19.1721  19.2204  19.2500  19.4845
    19.7836  19.8455  19.8939  20.1190  20.1837  20.5182  20.5442  20.5838
    20.6080  20.6966  20.7677  21.0413  21.0886  21.1513  21.2338  21.2349
    21.6911  22.1122  22.2030  22.2484  22.3657  22.4400  22.4433  22.5227
    22.7027  22.8042  22.8362  23.0260  23.2513  23.5622  23.5660  23.6440
    23.6937  24.1503  24.2303  24.3609  24.6682  24.6968  24.9120  25.6944
    26.2093  26.8015  28.3285  28.8600  28.9029  30.4069  31.2860  32.0866
    32.3778  32.8729  33.4823  33.6235  34.2989  35.1228  35.8459  35.8823
    36.2674  36.4908  36.8583  37.3117

          k = 0.4454 0.2404 0.0820 ( 19822 PWs)   bands (ev):

   -74.5398 -74.5385 -74.5272 -74.5259 -74.5233 -74.5207 -54.4388 -54.4343
   -54.4116 -54.4071 -42.9419 -42.9418 -42.9358 -42.9355 -42.9353 -42.9351
   -42.9325 -42.9324 -42.9245 -42.9245 -42.9211 -42.9208 -42.9207 -42.9205
   -42.9204 -42.9199 -42.9197 -42.9195 -42.9188 -42.9186 -42.9185 -42.9183
   -42.9158 -42.9157 -42.9122 -42.9122 -42.9086 -42.9085 -42.9078 -42.9077
   -42.9076 -42.9073 -42.9072 -42.9071 -42.9070 -42.9068 -42.9066 -42.9065
   -42.9063 -42.9061 -42.9060 -42.9059 -28.7915 -28.7772 -28.7650 -28.7334
   -28.7206 -28.7183 -28.6708 -28.6607 -28.6526 -28.6340 -28.6158 -28.6114
   -28.6005 -28.5748 -28.5460 -28.5279 -28.5230 -28.5157 -22.4005 -22.3909
   -22.3540 -22.3483 -22.3019 -22.2913 -22.2750 -22.2638 -22.2201 -22.2153
   -22.1853 -22.1760  16.8442  16.9671  17.8489  17.9691  18.1439  18.4857
    18.5607  18.5944  18.7030  18.7188  19.0193  19.0788  19.3263  19.5429
    19.5878  19.6932  20.0402  20.0478  20.4402  20.6872  20.7929  20.8435
    20.8980  20.9952  21.0524  21.0530  21.1332  21.1836  21.2693  21.3157
    21.5798  21.6481  22.0176  22.1849  22.3022  22.3191  22.5152  22.6539
    22.6986  22.8238  23.0944  23.3413  23.5770  23.5802  23.7298  23.7766
    23.7905  24.0349  24.1935  24.2388  24.3144  24.3337  24.7602  25.4641
    26.6449  27.0632  28.4450  28.9031  29.0246  30.0106  30.8817  30.9724
    31.2659  32.4632  33.6013  33.7786  34.8241  35.4157  35.9968  36.1940
    36.6265  37.7930  37.8131  38.2421

          k = 0.4823 0.3094 0.2460 ( 19826 PWs)   bands (ev):

   -74.5418 -74.5349 -74.5291 -74.5262 -74.5236 -74.5197 -54.4413 -54.4295
   -54.4163 -54.4046 -42.9419 -42.9418 -42.9358 -42.9355 -42.9353 -42.9352
   -42.9325 -42.9324 -42.9245 -42.9245 -42.9211 -42.9208 -42.9207 -42.9206
   -42.9204 -42.9199 -42.9197 -42.9195 -42.9188 -42.9186 -42.9185 -42.9183
   -42.9158 -42.9157 -42.9122 -42.9122 -42.9086 -42.9085 -42.9078 -42.9076
   -42.9076 -42.9073 -42.9072 -42.9071 -42.9070 -42.9067 -42.9066 -42.9065
   -42.9063 -42.9061 -42.9061 -42.9059 -28.7908 -28.7897 -28.7716 -28.7159
   -28.7078 -28.7055 -28.6749 -28.6700 -28.6530 -28.6431 -28.6319 -28.6107
   -28.5948 -28.5615 -28.5492 -28.5348 -28.5265 -28.5074 -22.3999 -22.3916
   -22.3558 -22.3439 -22.3088 -22.2838 -22.2815 -22.2588 -22.2243 -22.2122
   -22.1850 -22.1767  16.7131  17.3276  17.7843  17.8268  17.8862  18.1734
    18.6720  18.7332  18.8322  19.0228  19.1340  19.4049  19.4980  19.5916
    19.6074  19.6811  19.8786  20.0968  20.1282  20.2818  20.5027  20.6920
    20.7163  20.7996  20.8815  20.9159  21.0606  21.1045  21.3791  21.5662
    21.6288  21.6812  22.1768  22.3743  22.4802  22.5249  22.6253  22.7005
    22.7591  22.8980  23.1792  23.3064  23.4144  23.6954  23.8843  23.9716
    23.9873  24.0847  24.1977  24.2359  24.3028  24.3500  24.7570  25.5342
    25.6626  26.9841  27.2253  29.5214  30.2826  30.4860  30.7369  30.8332
    31.2478  31.7814  33.6221  34.0364  35.5444  35.5876  35.9186  36.1606
    36.1851  36.4562  37.4912  38.0824

          k = 0.3718 0.1026-0.2460 ( 19837 PWs)   bands (ev):

   -74.5423 -74.5335 -74.5306 -74.5253 -74.5235 -74.5201 -54.4413 -54.4294
   -54.4163 -54.4046 -42.9419 -42.9418 -42.9358 -42.9355 -42.9353 -42.9352
   -42.9325 -42.9324 -42.9245 -42.9245 -42.9211 -42.9208 -42.9207 -42.9206
   -42.9203 -42.9200 -42.9197 -42.9195 -42.9188 -42.9186 -42.9185 -42.9183
   -42.9158 -42.9157 -42.9122 -42.9122 -42.9086 -42.9085 -42.9078 -42.9076
   -42.9075 -42.9073 -42.9072 -42.9071 -42.9070 -42.9068 -42.9066 -42.9065
   -42.9063 -42.9061 -42.9061 -42.9059 -28.7931 -28.7837 -28.7691 -28.7207
   -28.7036 -28.6970 -28.6735 -28.6730 -28.6665 -28.6560 -28.6426 -28.5961
   -28.5820 -28.5597 -28.5486 -28.5409 -28.5248 -28.5081 -22.3977 -22.3955
   -22.3549 -22.3435 -22.3085 -22.2844 -22.2799 -22.2596 -22.2250 -22.2127
   -22.1817 -22.1792  16.4592  17.4794  17.7558  17.9578  18.1538  18.2216
    18.4553  18.5189  18.7550  19.1598  19.1920  19.2794  19.4652  19.6848
    19.7641  19.8178  19.9674  19.9875  20.2089  20.3286  20.4113  20.5406
    20.7015  20.7556  20.7890  20.9670  21.0456  21.4944  21.5618  21.6448
    21.6738  21.7598  21.8602  22.1827  22.2068  22.2999  22.4082  22.6144
    22.6709  23.0917  23.2502  23.3303  23.5298  23.8935  24.1428  24.2432
    24.2582  24.2784  24.3650  24.4115  24.4232  24.4956  24.6145  24.8066
    24.9543  25.9135  27.1906  29.5771  30.0017  30.6062  31.3185  31.4479
    32.6447  32.9010  33.1908  33.9392  34.4219  35.0488  35.6863  35.7385
    36.5236  36.5934  37.4735  37.6904

          k = 0.4086 0.1715-0.0820 ( 19828 PWs)   bands (ev):

   -74.5411 -74.5368 -74.5284 -74.5248 -74.5225 -74.5218 -54.4388 -54.4342
   -54.4116 -54.4071 -42.9419 -42.9418 -42.9358 -42.9355 -42.9353 -42.9351
   -42.9325 -42.9324 -42.9245 -42.9245 -42.9211 -42.9208 -42.9208 -42.9205
   -42.9203 -42.9200 -42.9197 -42.9195 -42.9188 -42.9186 -42.9184 -42.9183
   -42.9158 -42.9157 -42.9122 -42.9122 -42.9086 -42.9085 -42.9078 -42.9077
   -42.9075 -42.9073 -42.9072 -42.9071 -42.9070 -42.9068 -42.9066 -42.9065
   -42.9063 -42.9061 -42.9060 -42.9059 -28.7916 -28.7733 -28.7554 -28.7461
   -28.7156 -28.7144 -28.6700 -28.6670 -28.6592 -28.6492 -28.6253 -28.6008
   -28.5790 -28.5769 -28.5416 -28.5362 -28.5209 -28.5165 -22.3990 -22.3941
   -22.3526 -22.3484 -22.3013 -22.2916 -22.2726 -22.2658 -22.2208 -22.2157
   -22.1826 -22.1779  16.4737  17.3065  17.8751  18.0499  18.2505  18.4243
    18.4652  18.4685  18.6848  18.7996  18.9672  19.1618  19.1923  19.4475
    19.8317  19.9157  19.9680  20.0774  20.5687  20.7388  20.7418  20.7508
    20.8368  20.9712  21.0042  21.0815  21.2540  21.3106  21.3808  21.5759
    21.6194  21.6949  21.8287  21.9000  21.9530  22.2567  22.4345  22.5707
    22.7553  22.8455  23.0925  23.1002  23.3588  23.7762  23.8258  23.8603
    24.1759  24.2651  24.3236  24.4335  24.4384  24.4610  24.5748  25.0412
    26.0729  26.3225  27.7459  29.1310  29.5841  30.2379  31.2956  31.6870
    31.8731  32.6812  33.5184  34.3095  35.0326  35.0796  35.5908  36.1556
    36.3676  36.7451  37.2383  37.6916

          k = 0.4454 0.4231 0.0820 ( 19857 PWs)   bands (ev):

   -74.5391 -74.5351 -74.5285 -74.5273 -74.5241 -74.5213 -54.4376 -54.4284
   -54.4175 -54.4083 -42.9419 -42.9418 -42.9358 -42.9355 -42.9353 -42.9351
   -42.9325 -42.9324 -42.9246 -42.9245 -42.9211 -42.9208 -42.9207 -42.9205
   -42.9204 -42.9199 -42.9197 -42.9195 -42.9187 -42.9185 -42.9184 -42.9183
   -42.9159 -42.9158 -42.9122 -42.9122 -42.9087 -42.9085 -42.9078 -42.9076
   -42.9075 -42.9073 -42.9072 -42.9071 -42.9070 -42.9068 -42.9067 -42.9066
   -42.9063 -42.9061 -42.9061 -42.9060 -28.7888 -28.7793 -28.7562 -28.7464
   -28.7044 -28.7041 -28.6932 -28.6661 -28.6535 -28.6347 -28.6169 -28.5934
   -28.5903 -28.5668 -28.5529 -28.5392 -28.5353 -28.5172 -22.3972 -22.3834
   -22.3493 -22.3483 -22.3174 -22.2954 -22.2714 -22.2509 -22.2176 -22.2174
   -22.1944 -22.1804  17.0258  17.3046  18.0048  18.0888  18.2060  18.3496
    18.5243  18.5580  18.6789  18.7348  18.8127  18.8257  19.2245  19.2335
    19.3260  19.6586  19.8395  20.3219  20.4249  20.6883  20.6903  20.8228
    20.9001  20.9810  21.1224  21.1462  21.2007  21.3567  21.3573  21.4513
    21.5305  21.8249  21.9096  21.9655  22.4151  22.6272  22.7444  22.9486
    22.9570  22.9928  23.1014  23.1664  23.5489  23.5771  23.6483  23.7280
    23.7844  24.1026  24.1877  24.2095  24.3092  24.4666  24.6031  25.3159
    26.0349  26.3491  27.5960  28.3964  28.5994  28.8351  30.5376  31.6873
    32.1624  32.8630  33.9541  35.6356  35.8926  36.7782  36.7915  37.0111
    37.0517  37.2908  37.4046  37.7036

          k = 0.4823 0.4921 0.2460 ( 19845 PWs)   bands (ev):

   -74.5401 -74.5321 -74.5314 -74.5262 -74.5242 -74.5215 -54.4384 -54.4254
   -54.4204 -54.4076 -42.9419 -42.9418 -42.9358 -42.9355 -42.9353 -42.9351
   -42.9325 -42.9324 -42.9245 -42.9245 -42.9211 -42.9208 -42.9206 -42.9206
   -42.9204 -42.9199 -42.9197 -42.9195 -42.9188 -42.9185 -42.9185 -42.9182
   -42.9159 -42.9158 -42.9122 -42.9122 -42.9086 -42.9086 -42.9078 -42.9076
   -42.9075 -42.9073 -42.9072 -42.9071 -42.9070 -42.9068 -42.9066 -42.9066
   -42.9064 -42.9061 -42.9061 -42.9059 -28.7900 -28.7740 -28.7572 -28.7435
   -28.7067 -28.7019 -28.6925 -28.6697 -28.6584 -28.6403 -28.6322 -28.5846
   -28.5770 -28.5603 -28.5453 -28.5427 -28.5410 -28.5214 -22.3938 -22.3911
   -22.3470 -22.3457 -22.3176 -22.2939 -22.2714 -22.2525 -22.2202 -22.2172
   -22.1871 -22.1858  16.9885  17.5170  17.9165  17.9434  18.0314  18.2845
    18.3450  18.4316  18.7433  18.7771  19.0473  19.1512  19.2928  19.4423
    19.5038  19.6320  19.8933  20.2340  20.2934  20.4315  20.4340  20.6619
    20.8293  20.8712  20.9709  20.9991  21.2971  21.3259  21.5014  21.5017
    22.0332  22.1337  22.1703  22.2398  22.3956  22.4853  22.5522  22.6114
    22.7213  22.8624  23.2896  23.4291  23.4376  23.4967  23.5791  23.9170
    24.0530  24.0701  24.2334  24.3089  24.3665  24.4998  24.5276  25.1049
    25.7287  26.0584  26.8366  28.3853  28.9022  29.7145  30.5971  31.8431
    32.4847  32.7403  34.8704  35.3328  35.7949  35.9996  36.3712  36.5305
    36.8469  37.1783  37.3447  37.5102

          k = 0.3718 0.2853-0.2460 ( 19835 PWs)   bands (ev):

   -74.5397 -74.5344 -74.5296 -74.5252 -74.5237 -74.5228 -54.4369 -54.4300
   -54.4158 -54.4091 -42.9419 -42.9418 -42.9358 -42.9355 -42.9353 -42.9352
   -42.9325 -42.9324 -42.9246 -42.9245 -42.9211 -42.9208 -42.9207 -42.9206
   -42.9203 -42.9200 -42.9197 -42.9195 -42.9188 -42.9185 -42.9184 -42.9182
   -42.9159 -42.9158 -42.9122 -42.9122 -42.9087 -42.9085 -42.9077 -42.9076
   -42.9075 -42.9073 -42.9072 -42.9072 -42.9070 -42.9068 -42.9066 -42.9066
   -42.9064 -42.9061 -42.9061 -42.9060 -28.7956 -28.7531 -28.7491 -28.7438
   -28.7228 -28.7178 -28.6859 -28.6850 -28.6619 -28.6321 -28.6195 -28.5744
   -28.5741 -28.5711 -28.5525 -28.5426 -28.5308 -28.5269 -22.3999 -22.3832
   -22.3494 -22.3486 -22.3093 -22.2984 -22.2656 -22.2591 -22.2197 -22.2156
   -22.1948 -22.1795  16.9063  17.6783  17.7311  17.9180  18.1031  18.2528
    18.3751  18.4006  18.6339  18.8397  19.0312  19.0692  19.1138  19.6154
    19.7893  19.9230  20.0297  20.1659  20.3294  20.4263  20.4705  20.5793
    20.6065  20.7515  20.7806  21.1326  21.2892  21.5027  21.5689  21.8391
    21.9227  21.9373  21.9702  22.0628  22.1943  22.2752  22.6014  22.8883
    22.9525  22.9671  23.2306  23.4709  23.5717  23.7347  23.8376  23.8864
    24.0573  24.1880  24.2741  24.2950  24.3627  24.4850  24.5477  24.8587
    24.9411  26.0100  26.1380  27.9580  29.0805  30.7085  31.8929  32.1692
    32.5478  33.2069  34.4013  34.4736  35.0585  35.3654  35.8097  36.7157
    37.1803  37.2180  37.5224  37.6766

          k = 0.4086 0.3542-0.0820 ( 19821 PWs)   bands (ev):

   -74.5380 -74.5370 -74.5283 -74.5257 -74.5240 -74.5223 -54.4346 -54.4333
   -54.4127 -54.4112 -42.9418 -42.9418 -42.9358 -42.9355 -42.9353 -42.9351
   -42.9325 -42.9324 -42.9246 -42.9245 -42.9211 -42.9208 -42.9208 -42.9205
   -42.9203 -42.9201 -42.9197 -42.9195 -42.9187 -42.9185 -42.9184 -42.9183
   -42.9159 -42.9158 -42.9122 -42.9122 -42.9087 -42.9085 -42.9077 -42.9076
   -42.9075 -42.9073 -42.9072 -42.9071 -42.9070 -42.9068 -42.9067 -42.9066
   -42.9063 -42.9061 -42.9060 -42.9060 -28.7955 -28.7651 -28.7441 -28.7422
   -28.7205 -28.7187 -28.6934 -28.6741 -28.6603 -28.6155 -28.6119 -28.5937
   -28.5811 -28.5764 -28.5536 -28.5375 -28.5369 -28.5182 -22.4006 -22.3773
   -22.3527 -22.3512 -22.3082 -22.3009 -22.2666 -22.2566 -22.2168 -22.2154
   -22.1992 -22.1775  17.0434  17.2166  17.9807  18.0995  18.2431  18.3564
    18.3642  18.5181  18.6410  18.6844  18.7519  18.9357  19.1363  19.1991
    19.8056  19.8721  20.1866  20.2072  20.4918  20.5434  20.5942  20.6046
    20.6949  21.0515  21.1544  21.2185  21.2503  21.2974  21.4908  21.5528
    21.6529  21.7439  21.8709  21.8889  22.3288  22.4771  22.6208  22.8667
    22.9458  23.0923  23.2899  23.4577  23.4772  23.5251  23.6129  23.6407
    23.7017  23.7177  24.3189  24.4316  24.5432  24.6063  24.8274  25.0457
    25.5588  26.6388  26.9263  27.5392  27.9408  30.6275  31.0808  32.2167
    32.8882  33.8714  33.9318  34.7780  34.8671  35.0040  36.3262  36.7139
    37.0591  37.2781  37.3668  37.7082

          k = 0.4454 0.6058 0.0820 ( 19850 PWs)   bands (ev):

   -74.5362 -74.5329 -74.5313 -74.5278 -74.5238 -74.5235 -54.4327 -54.4263
   -54.4195 -54.4132 -42.9418 -42.9418 -42.9358 -42.9355 -42.9353 -42.9351
   -42.9325 -42.9324 -42.9245 -42.9245 -42.9211 -42.9208 -42.9207 -42.9205
   -42.9204 -42.9199 -42.9197 -42.9195 -42.9187 -42.9185 -42.9184 -42.9182
   -42.9160 -42.9159 -42.9122 -42.9122 -42.9087 -42.9086 -42.9077 -42.9075
   -42.9075 -42.9073 -42.9072 -42.9071 -42.9070 -42.9068 -42.9067 -42.9066
   -42.9063 -42.9061 -42.9061 -42.9060 -28.7830 -28.7775 -28.7559 -28.7492
   -28.7092 -28.7075 -28.6786 -28.6647 -28.6559 -28.6502 -28.6072 -28.5791
   -28.5719 -28.5641 -28.5564 -28.5544 -28.5445 -28.5290 -22.3857 -22.3843
   -22.3505 -22.3404 -22.3252 -22.3094 -22.2587 -22.2465 -22.2201 -22.2134
   -22.1954 -22.1943  17.4186  17.5947  17.8605  18.0823  18.2590  18.3035
    18.3827  18.5696  18.5732  18.6847  18.7174  18.8117  19.0171  19.0207
    19.3483  19.6934  19.8865  20.0810  20.4383  20.7602  20.8128  20.8310
    20.9489  20.9961  21.0160  21.1812  21.3125  21.3570  21.3888  21.6130
    21.7432  21.8578  21.9096  22.1475  22.2827  22.5211  22.5314  22.8861
    22.9453  23.0323  23.2469  23.3469  23.6778  23.7115  23.8420  24.0553
    24.2473  24.2830  24.2897  24.3086  24.4033  24.4911  24.5180  24.5908
    25.7196  26.0606  26.6628  26.9794  27.2311  27.9465  31.1749  32.1344
    33.8392  34.1167  35.0119  35.4372  35.4880  36.2274  37.3946  37.4169
    37.8593  37.8952  38.0352  38.2978

          k = 0.4823 0.6748 0.2460 ( 19869 PWs)   bands (ev):

   -74.5364 -74.5341 -74.5291 -74.5274 -74.5244 -74.5239 -54.4324 -54.4273
   -54.4185 -54.4136 -42.9418 -42.9418 -42.9358 -42.9355 -42.9353 -42.9351
   -42.9325 -42.9324 -42.9246 -42.9245 -42.9211 -42.9208 -42.9206 -42.9206
   -42.9204 -42.9199 -42.9197 -42.9195 -42.9187 -42.9185 -42.9184 -42.9182
   -42.9160 -42.9159 -42.9122 -42.9122 -42.9087 -42.9085 -42.9077 -42.9075
   -42.9074 -42.9073 -42.9072 -42.9072 -42.9070 -42.9068 -42.9067 -42.9066
   -42.9064 -42.9061 -42.9061 -42.9060 -28.7936 -28.7655 -28.7421 -28.7401
   -28.7180 -28.7177 -28.6902 -28.6836 -28.6570 -28.6212 -28.6052 -28.5797
   -28.5771 -28.5632 -28.5574 -28.5563 -28.5466 -28.5239 -22.3936 -22.3735
   -22.3498 -22.3488 -22.3144 -22.3139 -22.2552 -22.2519 -22.2162 -22.2133
   -22.2066 -22.1867  17.5089  17.5324  17.8311  17.8725  18.1812  18.2061
    18.4170  18.4236  18.7498  18.7651  18.7677  19.1423  19.2670  19.4223
    19.5072  19.5951  19.8644  19.8885  19.9870  20.3854  20.6457  20.6872
    20.7294  20.7636  20.8778  21.0791  21.2398  21.3273  21.7161  21.8694
    21.9345  21.9833  22.1708  22.2239  22.2534  22.5666  22.9116  22.9877
    23.0028  23.0742  23.1643  23.6627  23.7904  23.9731  23.9909  24.0333
    24.0526  24.1332  24.1985  24.2574  24.3372  24.6166  24.6507  24.6583
    24.8784  24.9056  26.3550  26.9697  28.2574  28.4146  30.9111  32.5442
    34.2139  34.5619  34.6186  35.1509  35.5806  36.0763  36.5695  36.8909
    36.9613  37.5322  38.1828  38.4102

          k = 0.3718 0.4680-0.2460 ( 19847 PWs)   bands (ev):

   -74.5356 -74.5349 -74.5287 -74.5284 -74.5244 -74.5234 -54.4308 -54.4298
   -54.4160 -54.4153 -42.9418 -42.9418 -42.9358 -42.9355 -42.9353 -42.9351
   -42.9325 -42.9324 -42.9246 -42.9245 -42.9211 -42.9208 -42.9207 -42.9206
   -42.9203 -42.9200 -42.9197 -42.9195 -42.9187 -42.9185 -42.9184 -42.9182
   -42.9160 -42.9159 -42.9122 -42.9122 -42.9087 -42.9085 -42.9077 -42.9075
   -42.9075 -42.9073 -42.9072 -42.9071 -42.9070 -42.9068 -42.9067 -42.9066
   -42.9064 -42.9061 -42.9061 -42.9060 -28.7981 -28.7649 -28.7444 -28.7364
   -28.7214 -28.7068 -28.6993 -28.6747 -28.6648 -28.6062 -28.5958 -28.5872
   -28.5797 -28.5725 -28.5623 -28.5581 -28.5522 -28.5134 -22.3964 -22.3602
   -22.3552 -22.3531 -22.3212 -22.3078 -22.2607 -22.2425 -22.2197 -22.2143
   -22.2098 -22.1830  17.5441  17.5836  17.7367  17.7572  18.0455  18.1545
    18.6238  18.6243  18.7376  18.8385  18.9193  18.9942  19.2217  19.4484
    19.5772  19.6048  19.6055  20.0367  20.2064  20.3823  20.4836  20.5208
    20.6011  20.8174  20.9299  20.9367  21.0014  21.4553  21.4919  21.8330
    21.9090  22.2855  22.3463  22.4718  22.5569  22.6868  22.6918  22.9187
    23.0700  23.2463  23.3864  23.4438  23.4684  23.6292  23.7360  23.9946
    24.0359  24.0831  24.1791  24.2394  24.2396  24.3346  24.7853  25.0985
    25.2408  25.4110  25.8430  26.9587  27.3239  29.6562  31.0640  32.2945
    33.5593  33.7435  35.4351  35.6691  35.9253  36.1935  36.2723  36.8243
    37.2681  37.6881  37.9991  38.3682

          k = 0.4086 0.5369-0.0820 ( 19857 PWs)   bands (ev):

   -74.5355 -74.5338 -74.5308 -74.5284 -74.5238 -74.5231 -54.4318 -54.4283
   -54.4177 -54.4140 -42.9418 -42.9418 -42.9358 -42.9355 -42.9353 -42.9351
   -42.9325 -42.9324 -42.9246 -42.9245 -42.9211 -42.9208 -42.9207 -42.9205
   -42.9203 -42.9201 -42.9197 -42.9195 -42.9187 -42.9185 -42.9183 -42.9183
   -42.9160 -42.9159 -42.9122 -42.9122 -42.9087 -42.9085 -42.9077 -42.9075
   -42.9075 -42.9073 -42.9072 -42.9071 -42.9070 -42.9068 -42.9067 -42.9066
   -42.9063 -42.9061 -42.9061 -42.9060 -28.7924 -28.7719 -28.7579 -28.7448
   -28.7127 -28.6968 -28.6790 -28.6783 -28.6596 -28.6304 -28.5993 -28.5830
   -28.5759 -28.5649 -28.5641 -28.5578 -28.5535 -28.5161 -22.3935 -22.3700
   -22.3546 -22.3407 -22.3297 -22.3068 -22.2618 -22.2375 -22.2270 -22.2102
   -22.2063 -22.1857  17.3784  17.6677  17.8500  17.9177  17.9988  18.3065
    18.4585  18.6045  18.6917  18.7671  18.8852  18.9338  19.1342  19.2543
    19.3888  19.6692  19.8053  20.0569  20.2313  20.4229  20.5681  20.6519
    20.8431  20.9885  21.0508  21.0908  21.1898  21.1955  21.2963  21.5904
    21.9014  22.2200  22.2372  22.3980  22.4029  22.7426  22.8601  22.8606
    23.0228  23.1966  23.2518  23.3202  23.3351  23.4568  23.8802  23.9335
    23.9818  24.1040  24.1477  24.2897  24.3982  24.5007  24.5614  25.4564
    25.7625  25.7757  26.3307  26.5936  26.7252  29.5369  30.4770  31.9208
    33.7212  34.9719  35.2293  35.5292  36.0671  36.4806  36.4862  36.9726
    37.0456  37.0643  38.2160  38.3279

          k = 0.4454-0.3077 0.0820 ( 19806 PWs)   bands (ev):

   -74.5370 -74.5328 -74.5290 -74.5282 -74.5259 -74.5225 -54.4326 -54.4268
   -54.4192 -54.4133 -42.9418 -42.9418 -42.9358 -42.9355 -42.9353 -42.9351
   -42.9325 -42.9324 -42.9246 -42.9245 -42.9211 -42.9209 -42.9207 -42.9205
   -42.9204 -42.9199 -42.9197 -42.9196 -42.9187 -42.9185 -42.9184 -42.9182
   -42.9160 -42.9159 -42.9122 -42.9122 -42.9087 -42.9086 -42.9077 -42.9075
   -42.9075 -42.9073 -42.9072 -42.9072 -42.9070 -42.9068 -42.9067 -42.9066
   -42.9063 -42.9061 -42.9061 -42.9060 -28.7892 -28.7762 -28.7483 -28.7478
   -28.7077 -28.7048 -28.6848 -28.6841 -28.6505 -28.6410 -28.5926 -28.5817
   -28.5718 -28.5711 -28.5563 -28.5559 -28.5510 -28.5234 -22.3889 -22.3795
   -22.3526 -22.3367 -22.3312 -22.3070 -22.2596 -22.2428 -22.2229 -22.2128
   -22.1992 -22.1905  17.0338  17.8454  17.8878  18.0012  18.0592  18.3243
    18.5326  18.5505  18.6005  18.6172  18.7631  19.0650  19.1339  19.4635
    19.6135  19.6804  19.8137  20.0595  20.1565  20.5254  20.7114  20.7969
    20.8140  20.8914  20.9253  20.9873  21.1155  21.2799  21.3480  21.5797
    21.7364  21.8360  22.0205  22.1037  22.2063  22.4385  22.6385  22.9583
    23.0694  23.6157  23.6540  23.8367  23.8529  23.9930  24.0807  24.1169
    24.1634  24.1674  24.2977  24.3617  24.4057  24.4347  24.6463  24.9364
    25.0938  25.5605  25.6588  26.1593  26.5805  29.9387  30.6286  32.4327
    34.0113  34.6510  34.6940  35.1910  35.5958  35.9659  36.3787  37.2538
    37.5633  37.7655  37.8972  38.0024

          k = 0.4823-0.2387 0.2460 ( 19845 PWs)   bands (ev):

   -74.5364 -74.5338 -74.5298 -74.5273 -74.5241 -74.5239 -54.4312 -54.4292
   -54.4169 -54.4145 -42.9418 -42.9418 -42.9358 -42.9355 -42.9353 -42.9351
   -42.9325 -42.9324 -42.9246 -42.9245 -42.9211 -42.9208 -42.9207 -42.9205
   -42.9204 -42.9199 -42.9197 -42.9195 -42.9187 -42.9185 -42.9184 -42.9182
   -42.9160 -42.9159 -42.9122 -42.9122 -42.9087 -42.9085 -42.9077 -42.9075
   -42.9075 -42.9073 -42.9072 -42.9071 -42.9070 -42.9068 -42.9067 -42.9066
   -42.9064 -42.9061 -42.9061 -42.9060 -28.7975 -28.7690 -28.7386 -28.7383
   -28.7332 -28.7096 -28.6879 -28.6673 -28.6605 -28.6211 -28.5896 -28.5862
   -28.5800 -28.5685 -28.5638 -28.5599 -28.5539 -28.5137 -22.3952 -22.3651
   -22.3555 -22.3466 -22.3266 -22.3057 -22.2617 -22.2368 -22.2268 -22.2105
   -22.2097 -22.1838  17.2839  17.6861  17.7127  17.8863  18.0623  18.1425
    18.5366  18.6628  18.7275  18.9531  18.9833  19.1667  19.1914  19.4083
    19.5940  19.6878  19.7206  19.7717  20.0861  20.2307  20.5001  20.5905
    20.6763  20.8512  20.9048  20.9971  21.1407  21.2407  21.2826  21.5647
    22.1940  22.2718  22.2993  22.3331  22.4598  22.5157  22.5473  22.5868
    23.1975  23.5565  23.5982  23.6682  23.7789  23.9036  23.9203  23.9495
    24.0574  24.2908  24.3032  24.3320  24.4372  24.4974  24.6300  24.8907
    25.1652  25.4138  25.8499  26.0431  27.6612  28.8444  30.8629  32.6734
    33.0838  34.6833  34.7560  35.5485  35.9017  36.3995  36.4727  36.5756
    37.0325  37.6925  37.9886  38.3800

          k = 0.3718-0.4455-0.2460 ( 19870 PWs)   bands (ev):

   -74.5351 -74.5347 -74.5303 -74.5277 -74.5252 -74.5224 -54.4314 -54.4290
   -54.4168 -54.4146 -42.9418 -42.9418 -42.9358 -42.9355 -42.9353 -42.9351
   -42.9325 -42.9324 -42.9246 -42.9245 -42.9211 -42.9208 -42.9207 -42.9206
   -42.9203 -42.9200 -42.9197 -42.9195 -42.9187 -42.9185 -42.9184 -42.9182
   -42.9160 -42.9159 -42.9122 -42.9122 -42.9087 -42.9085 -42.9077 -42.9075
   -42.9075 -42.9073 -42.9072 -42.9071 -42.9070 -42.9068 -42.9067 -42.9066
   -42.9064 -42.9061 -42.9061 -42.9060 -28.7965 -28.7635 -28.7552 -28.7475
   -28.7202 -28.7177 -28.6833 -28.6600 -28.6428 -28.6208 -28.6038 -28.5890
   -28.5810 -28.5682 -28.5665 -28.5545 -28.5504 -28.5174 -22.3963 -22.3640
   -22.3532 -22.3517 -22.3187 -22.3095 -22.2593 -22.2452 -22.2164 -22.2149
   -22.2112 -22.1834  17.5099  17.5736  17.7941  17.8023  18.0408  18.1741
    18.4937  18.5844  18.6613  18.8787  18.8915  19.0347  19.3682  19.4377
    19.4780  19.6354  19.6916  19.8003  19.9129  20.4257  20.4623  20.6410
    20.7699  20.8857  21.0281  21.0722  21.1647  21.3515  21.4912  21.9856
    22.0038  22.2645  22.3456  22.4731  22.4874  22.6181  22.7348  22.8062
    23.0906  23.2392  23.2773  23.3948  23.4581  23.5292  23.7131  23.8628
    23.9569  24.1129  24.1132  24.1684  24.2014  24.3138  24.7629  25.3386
    25.3548  25.4445  26.0980  27.4837  27.6341  28.9702  30.1781  31.5248
    33.6274  34.4508  35.3471  35.5711  35.8160  36.0365  36.3476  36.9061
    37.4616  38.3130  38.4444  38.5857

          k = 0.4086-0.3766-0.0820 ( 19836 PWs)   bands (ev):

   -74.5364 -74.5328 -74.5295 -74.5290 -74.5258 -74.5218 -54.4327 -54.4267
   -54.4192 -54.4133 -42.9418 -42.9418 -42.9358 -42.9355 -42.9353 -42.9351
   -42.9325 -42.9324 -42.9246 -42.9245 -42.9211 -42.9208 -42.9207 -42.9205
   -42.9202 -42.9201 -42.9197 -42.9195 -42.9187 -42.9185 -42.9183 -42.9183
   -42.9160 -42.9159 -42.9122 -42.9122 -42.9087 -42.9086 -42.9076 -42.9075
   -42.9074 -42.9073 -42.9072 -42.9071 -42.9070 -42.9068 -42.9067 -42.9066
   -42.9063 -42.9061 -42.9061 -42.9060 -28.7858 -28.7750 -28.7615 -28.7498
   -28.7138 -28.7010 -28.6912 -28.6580 -28.6432 -28.6421 -28.6019 -28.5845
   -28.5786 -28.5706 -28.5540 -28.5536 -28.5419 -28.5320 -22.3911 -22.3779
   -22.3494 -22.3459 -22.3187 -22.3119 -22.2538 -22.2525 -22.2159 -22.2156
   -22.2021 -22.1891  17.1433  17.7657  17.9404  18.0424  18.1541  18.2621
    18.4301  18.5131  18.6047  18.6104  18.8375  18.8473  18.9479  19.1178
    19.7133  19.7942  19.8468  20.1298  20.4159  20.5382  20.5547  20.6554
    20.7866  20.9601  21.1724  21.2135  21.3985  21.4635  21.6484  21.6752
    21.7118  21.7762  21.8653  22.0560  22.4301  22.6212  22.6796  22.9302
    23.1399  23.2504  23.2782  23.3823  23.4993  23.5701  23.6725  23.7151
    23.7992  24.2696  24.3492  24.3773  24.4520  24.5316  24.7125  24.9571
    25.3982  25.6341  26.3903  27.2766  27.6089  27.7366  31.4390  32.6906
    32.9958  34.2599  34.5667  34.8422  35.5307  36.2730  37.2085  37.6542
    37.7747  38.1183  38.3585  38.6508

          k = 0.4454-0.1250 0.0820 ( 19828 PWs)   bands (ev):

   -74.5396 -74.5349 -74.5272 -74.5266 -74.5256 -74.5214 -54.4368 -54.4301
   -54.4158 -54.4090 -42.9419 -42.9418 -42.9358 -42.9355 -42.9353 -42.9351
   -42.9325 -42.9324 -42.9246 -42.9245 -42.9211 -42.9208 -42.9207 -42.9205
   -42.9204 -42.9199 -42.9197 -42.9195 -42.9187 -42.9185 -42.9185 -42.9183
   -42.9159 -42.9158 -42.9122 -42.9122 -42.9087 -42.9085 -42.9077 -42.9076
   -42.9075 -42.9073 -42.9072 -42.9071 -42.9070 -42.9068 -42.9067 -42.9066
   -42.9063 -42.9061 -42.9060 -42.9060 -28.7945 -28.7733 -28.7542 -28.7388
   -28.7216 -28.7105 -28.6791 -28.6693 -28.6602 -28.6379 -28.5984 -28.5928
   -28.5854 -28.5703 -28.5585 -28.5412 -28.5360 -28.5168 -22.3992 -22.3794
   -22.3520 -22.3501 -22.3152 -22.2960 -22.2692 -22.2518 -22.2177 -22.2169
   -22.1969 -22.1788  16.5488  17.6499  17.9715  18.1229  18.2393  18.3614
    18.4389  18.5288  18.5534  18.6184  19.1144  19.1370  19.2909  19.4799
    19.6291  19.8329  19.8779  20.0752  20.2190  20.4235  20.4294  20.7028
    20.7496  20.8886  20.9197  21.2224  21.2374  21.3000  21.3677  21.4900
    21.6910  21.8519  21.8926  22.1025  22.1346  22.6363  22.7334  22.8286
    22.8673  23.1470  23.2152  23.2457  23.5713  23.8248  23.9065  24.1512
    24.2320  24.2492  24.2934  24.3397  24.3928  24.4496  24.4635  25.4341
    25.5152  25.9200  26.6624  27.4257  27.6987  30.1614  31.0028  31.5450
    32.6772  34.0569  34.5158  34.8802  34.9459  35.0433  35.8601  36.3024
    37.3955  37.8218  37.9424  38.8833

          k = 0.4823-0.0560 0.2460 ( 19844 PWs)   bands (ev):

   -74.5376 -74.5374 -74.5277 -74.5270 -74.5232 -74.5225 -54.4347 -54.4332
   -54.4126 -54.4113 -42.9418 -42.9418 -42.9358 -42.9355 -42.9353 -42.9351
   -42.9325 -42.9324 -42.9246 -42.9245 -42.9211 -42.9208 -42.9207 -42.9205
   -42.9204 -42.9199 -42.9197 -42.9195 -42.9188 -42.9185 -42.9185 -42.9182
   -42.9159 -42.9158 -42.9122 -42.9122 -42.9087 -42.9085 -42.9077 -42.9076
   -42.9075 -42.9073 -42.9073 -42.9071 -42.9070 -42.9068 -42.9067 -42.9066
   -42.9063 -42.9061 -42.9061 -42.9059 -28.7966 -28.7621 -28.7543 -28.7496
   -28.7301 -28.7151 -28.6814 -28.6646 -28.6390 -28.6324 -28.6174 -28.5879
   -28.5809 -28.5706 -28.5522 -28.5470 -28.5360 -28.5216 -22.4014 -22.3785
   -22.3519 -22.3499 -22.3049 -22.3028 -22.2638 -22.2595 -22.2177 -22.2167
   -22.1986 -22.1774  17.0387  17.3104  17.9159  17.9420  18.1655  18.2058
    18.3841  18.3955  18.6228  18.8655  18.8989  19.2140  19.2285  19.6115
    19.7252  19.8784  19.9637  19.9740  20.1784  20.2871  20.3182  20.4392
    20.7682  20.9718  21.1243  21.2475  21.2811  21.3866  21.5312  21.7016
    21.7874  22.2228  22.2452  22.3034  22.3566  22.5548  22.5827  22.7014
    22.7032  22.9336  23.0154  23.1898  23.3493  23.5225  23.7476  23.8517
    23.9464  24.0367  24.0481  24.2875  24.3280  24.4824  24.6211  25.9838
    26.3621  26.7645  26.7753  26.9845  27.6717  29.5996  30.8377  31.6972
    32.3864  33.8144  33.9698  34.6356  35.3952  35.5261  36.0044  36.7144
    36.8290  37.6968  37.9428  38.2772

          k = 0.3718-0.2628-0.2460 ( 19858 PWs)   bands (ev):

   -74.5395 -74.5341 -74.5288 -74.5275 -74.5248 -74.5207 -54.4377 -54.4283
   -54.4175 -54.4083 -42.9419 -42.9418 -42.9358 -42.9355 -42.9353 -42.9351
   -42.9325 -42.9324 -42.9246 -42.9245 -42.9211 -42.9208 -42.9207 -42.9206
   -42.9203 -42.9200 -42.9197 -42.9195 -42.9188 -42.9185 -42.9184 -42.9183
   -42.9159 -42.9158 -42.9122 -42.9122 -42.9086 -42.9086 -42.9077 -42.9076
   -42.9075 -42.9073 -42.9072 -42.9071 -42.9070 -42.9068 -42.9067 -42.9066
   -42.9064 -42.9061 -42.9061 -42.9059 -28.7918 -28.7742 -28.7663 -28.7439
   -28.7138 -28.7098 -28.6901 -28.6504 -28.6401 -28.6361 -28.6324 -28.5824
   -28.5800 -28.5684 -28.5487 -28.5478 -28.5330 -28.5293 -22.3987 -22.3861
   -22.3477 -22.3468 -22.3127 -22.2963 -22.2675 -22.2565 -22.2202 -22.2173
   -22.1925 -22.1809  16.8348  17.6400  17.8522  18.0010  18.1072  18.2464
    18.3266  18.4253  18.5532  18.8029  18.8810  19.1954  19.3153  19.4884
    19.5731  19.9245  19.9742  20.0531  20.1316  20.2390  20.4481  20.5610
    20.7491  21.0543  21.1680  21.1823  21.3545  21.6053  21.7293  21.8956
    21.9092  21.9549  22.1868  22.3490  22.4022  22.4721  22.5155  22.7186
    22.7555  22.8662  22.9349  23.1265  23.3217  23.5320  23.6156  23.6760
    23.8512  23.8575  23.9934  24.0570  24.2938  24.4588  24.7687  25.5139
    26.4831  26.7428  27.1157  27.2426  28.6397  29.2193  30.5239  31.6197
    32.8194  33.1439  34.5770  34.8026  35.2171  35.6312  36.1555  36.3164
    36.6574  37.1609  37.3800  37.7554

          k = 0.4086-0.1939-0.0820 ( 19834 PWs)   bands (ev):

   -74.5403 -74.5322 -74.5294 -74.5271 -74.5261 -74.5203 -54.4384 -54.4255
   -54.4204 -54.4076 -42.9419 -42.9418 -42.9358 -42.9355 -42.9353 -42.9351
   -42.9325 -42.9324 -42.9245 -42.9245 -42.9211 -42.9208 -42.9207 -42.9206
   -42.9202 -42.9200 -42.9197 -42.9195 -42.9187 -42.9185 -42.9184 -42.9183
   -42.9159 -42.9158 -42.9122 -42.9122 -42.9086 -42.9085 -42.9078 -42.9076
   -42.9075 -42.9073 -42.9072 -42.9071 -42.9070 -42.9068 -42.9067 -42.9066
   -42.9063 -42.9061 -42.9060 -42.9060 -28.7874 -28.7814 -28.7678 -28.7393
   -28.7001 -28.6948 -28.6937 -28.6805 -28.6536 -28.6350 -28.6120 -28.5868
   -28.5857 -28.5708 -28.5498 -28.5409 -28.5379 -28.5212 -22.3937 -22.3901
   -22.3480 -22.3459 -22.3195 -22.2936 -22.2707 -22.2509 -22.2197 -22.2180
   -22.1885 -22.1846  16.4880  17.7836  17.9627  18.1416  18.2236  18.3575
    18.4675  18.5831  18.6969  18.7596  18.8191  18.9712  19.0241  19.1157
    19.6273  20.0274  20.0572  20.2547  20.3226  20.3556  20.5800  20.8433
    20.9036  20.9950  21.0550  21.1197  21.1933  21.3444  21.4643  21.5428
    21.5507  21.7733  22.0393  22.0645  22.3547  22.4310  22.5181  22.5996
    23.1078  23.2020  23.3319  23.3701  23.5636  23.5783  23.6061  23.6416
    23.9985  24.2047  24.2507  24.3445  24.3665  24.4661  24.5577  24.9731
    25.6612  26.1669  27.3452  27.4297  28.6038  29.0066  31.8287  32.0686
    32.3442  32.9640  34.2140  34.7277  35.2413  35.2516  35.6331  37.1095
    37.3834  37.7812  38.0889  38.2000

          k = 0.4454 0.0577 0.0820 ( 19841 PWs)   bands (ev):

   -74.5401 -74.5382 -74.5270 -74.5259 -74.5224 -74.5216 -54.4374 -54.4360
   -54.4099 -54.4084 -42.9419 -42.9418 -42.9358 -42.9355 -42.9353 -42.9351
   -42.9325 -42.9324 -42.9245 -42.9245 -42.9211 -42.9208 -42.9207 -42.9205
   -42.9204 -42.9199 -42.9197 -42.9195 -42.9188 -42.9186 -42.9185 -42.9183
   -42.9158 -42.9157 -42.9122 -42.9122 -42.9086 -42.9085 -42.9078 -42.9077
   -42.9076 -42.9073 -42.9073 -42.9071 -42.9070 -42.9068 -42.9066 -42.9065
   -42.9063 -42.9061 -42.9060 -42.9059 -28.7900 -28.7776 -28.7587 -28.7476
   -28.7249 -28.7067 -28.6713 -28.6654 -28.6447 -28.6423 -28.6213 -28.6098
   -28.5815 -28.5812 -28.5435 -28.5333 -28.5200 -28.5191 -22.4009 -22.3913
   -22.3532 -22.3490 -22.2990 -22.2943 -22.2708 -22.2670 -22.2196 -22.2166
   -22.1845 -22.1763  16.5097  17.2014  17.9624  18.0697  18.2996  18.4150
    18.4233  18.5474  18.6581  18.7988  18.9790  19.0316  19.2299  19.6001
    19.6908  19.7864  19.8998  20.0166  20.4047  20.5798  20.8228  20.9277
    20.9690  21.0478  21.0540  21.1426  21.2399  21.2430  21.3537  21.5662
    21.6551  21.7496  21.9466  21.9658  22.0863  22.1413  22.3709  22.4635
    22.4826  22.8485  23.1823  23.2482  23.3253  23.6210  23.8700  23.9962
    24.0570  24.2228  24.2389  24.3927  24.4208  24.4588  24.4898  25.1652
    26.9920  27.5017  27.8753  28.6412  28.7237  29.0631  30.8278  30.9252
    32.4282  33.2927  33.4597  33.5964  34.6705  35.1731  35.7980  36.1549
    36.4859  37.3262  38.0235  38.3238

          k = 0.4823 0.1267 0.2460 ( 19842 PWs)   bands (ev):

   -74.5408 -74.5369 -74.5277 -74.5266 -74.5231 -74.5203 -54.4399 -54.4325
   -54.4132 -54.4060 -42.9419 -42.9418 -42.9358 -42.9355 -42.9353 -42.9351
   -42.9325 -42.9324 -42.9245 -42.9245 -42.9211 -42.9208 -42.9207 -42.9206
   -42.9204 -42.9199 -42.9197 -42.9195 -42.9188 -42.9186 -42.9185 -42.9183
   -42.9158 -42.9157 -42.9122 -42.9122 -42.9086 -42.9085 -42.9078 -42.9077
   -42.9076 -42.9073 -42.9072 -42.9071 -42.9070 -42.9067 -42.9066 -42.9065
   -42.9063 -42.9061 -42.9061 -42.9059 -28.7927 -28.7843 -28.7676 -28.7352
   -28.7187 -28.6973 -28.6729 -28.6714 -28.6456 -28.6365 -28.6360 -28.5933
   -28.5925 -28.5753 -28.5395 -28.5385 -28.5278 -28.5140 -22.3987 -22.3954
   -22.3520 -22.3463 -22.3039 -22.2888 -22.2760 -22.2629 -22.2225 -22.2159
   -22.1814 -22.1788  16.8289  17.1195  17.8736  17.8762  17.9421  18.2673
    18.4640  18.5066  18.8229  18.9911  19.0448  19.2500  19.3700  19.5957
    19.6469  19.7450  20.0463  20.2249  20.2462  20.3977  20.5685  20.5855
    20.6828  20.8952  20.9878  21.0705  21.2065  21.2890  21.3662  21.7011
    21.7234  21.8903  22.0865  22.1840  22.2545  22.2954  22.4289  22.6040
    22.6683  22.8421  23.2165  23.3980  23.5548  23.6138  23.7503  23.8071
    23.9126  23.9663  24.0488  24.2707  24.4078  24.4976  24.6558  25.7603
    26.1511  27.0698  28.0232  28.6388  29.0703  29.5720  31.0025  31.3624
    32.1304  32.2538  33.4997  34.1395  34.4626  35.0165  35.6776  35.9005
    36.8548  36.8920  37.6521  37.6860

          k = 0.3718-0.0801-0.2460 ( 19853 PWs)   bands (ev):

   -74.5422 -74.5333 -74.5303 -74.5261 -74.5240 -74.5194 -54.4416 -54.4286
   -54.4172 -54.4043 -42.9419 -42.9418 -42.9358 -42.9355 -42.9353 -42.9352
   -42.9325 -42.9324 -42.9245 -42.9245 -42.9211 -42.9208 -42.9207 -42.9206
   -42.9203 -42.9200 -42.9197 -42.9195 -42.9188 -42.9186 -42.9185 -42.9183
   -42.9158 -42.9157 -42.9122 -42.9122 -42.9086 -42.9085 -42.9078 -42.9076
   -42.9076 -42.9073 -42.9072 -42.9071 -42.9070 -42.9068 -42.9066 -42.9065
   -42.9063 -42.9061 -42.9061 -42.9059 -28.7910 -28.7907 -28.7762 -28.7129
   -28.7053 -28.6895 -28.6827 -28.6793 -28.6576 -28.6478 -28.6235 -28.6106
   -28.5862 -28.5648 -28.5472 -28.5393 -28.5267 -28.5079 -22.3987 -22.3941
   -22.3550 -22.3431 -22.3095 -22.2842 -22.2800 -22.2587 -22.2253 -22.2126
   -22.1828 -22.1782  16.4235  17.4899  17.7801  17.9875  18.1193  18.1673
    18.5039  18.6901  18.7238  19.0878  19.2465  19.2857  19.3612  19.4458
    19.7265  19.8519  19.9004  20.1100  20.1796  20.2493  20.5765  20.6339
    20.6626  20.8718  20.8783  21.0398  21.0712  21.1297  21.4549  21.4938
    21.6380  21.9598  22.1294  22.2369  22.3304  22.4413  22.5597  22.8218
    22.9209  22.9478  23.0451  23.3040  23.3265  23.5090  23.7230  24.0074
    24.0525  24.1568  24.1728  24.2251  24.2941  24.6301  24.7900  25.2225
    25.3491  27.2948  27.7725  28.7742  28.7830  30.6629  31.1325  31.2332
    31.6379  33.3073  33.8061  34.4118  34.6492  35.1942  35.1971  35.5829
    36.0368  36.3087  36.9566  38.1422

          k = 0.4086-0.0112-0.0820 ( 19820 PWs)   bands (ev):

   -74.5420 -74.5349 -74.5286 -74.5257 -74.5241 -74.5200 -54.4407 -54.4309
   -54.4149 -54.4052 -42.9419 -42.9418 -42.9358 -42.9355 -42.9353 -42.9351
   -42.9325 -42.9324 -42.9245 -42.9245 -42.9211 -42.9208 -42.9208 -42.9205
   -42.9202 -42.9200 -42.9197 -42.9195 -42.9188 -42.9186 -42.9184 -42.9183
   -42.9158 -42.9157 -42.9122 -42.9122 -42.9086 -42.9085 -42.9078 -42.9076
   -42.9076 -42.9073 -42.9072 -42.9071 -42.9070 -42.9068 -42.9066 -42.9065
   -42.9063 -42.9061 -42.9060 -42.9059 -28.7909 -28.7812 -28.7745 -28.7189
   -28.7163 -28.7013 -28.6765 -28.6721 -28.6554 -28.6370 -28.6334 -28.6124
   -28.5848 -28.5630 -28.5552 -28.5347 -28.5213 -28.5102 -22.4008 -22.3900
   -22.3572 -22.3452 -22.3076 -22.2856 -22.2787 -22.2601 -22.2234 -22.2121
   -22.1856 -22.1762  16.2481  17.4439  17.9837  18.0403  18.2500  18.4268
    18.4630  18.5632  18.7606  19.0016  19.1395  19.1756  19.2825  19.6168
    19.7438  19.7856  19.8377  19.9769  20.0956  20.5238  20.5641  20.7249
    20.7921  20.8878  20.9266  21.0218  21.1968  21.2397  21.3609  21.3960
    21.7006  21.8772  21.9932  22.1603  22.3288  22.3699  22.4888  22.5433
    22.6759  23.0647  23.0918  23.1485  23.5821  23.8603  23.9271  24.0579
    24.0706  24.2069  24.2740  24.3437  24.4255  24.5375  24.6126  24.6929
    24.9580  27.6652  28.3340  28.5586  29.2991  30.0230  30.4510  30.8063
    32.3096  32.9807  33.5418  34.5102  35.1392  35.5057  35.7999  36.3032
    36.3102  37.0681  37.2854  37.4803

     the Fermi energy is    24.1851 ev

!    total energy              =   -7064.82171314 Ry
     estimated scf accuracy    <          6.1E-09 Ry
     smearing contrib. (-TS)   =      -0.00611756 Ry
     internal energy E=F+TS    =   -7064.81559558 Ry

     The total energy is F=E-TS. E is the sum of the following terms:
     one-electron contribution =   -4708.24346737 Ry
     hartree contribution      =    2524.65648835 Ry
     xc contribution           =    -540.65570595 Ry
     ewald contribution        =   -4340.57291061 Ry

     convergence has been achieved in  18 iterations

     Forces acting on atoms (cartesian axes, Ry/au):

     atom    1 type  1   force =     0.00146573   -0.00062987   -0.00121214
     atom    2 type  1   force =    -0.00154226    0.00090485    0.00139549
     atom    3 type  1   force =     0.00128831   -0.00080318   -0.00132151
     atom    4 type  1   force =    -0.00005714   -0.00006730   -0.00010444
     atom    5 type  1   force =    -0.00135587    0.00051570    0.00105979
     atom    6 type  1   force =    -0.00003827    0.00005995    0.00022306
     atom    7 type  2   force =    -0.00180763    0.00037536    0.00140672
     atom    8 type  2   force =     0.00185590   -0.00036943   -0.00146054
     atom    9 type  2   force =     0.00195169   -0.00037403   -0.00147309
     atom   10 type  2   force =    -0.00176048    0.00038796    0.00148664

     Total force =     0.006260     Total SCF correction =     0.000545


     Computing stress (Cartesian axis) and pressure

          total   stress  (Ry/bohr**3)                   (kbar)     P=      -16.74
  -0.00013158   0.00000650   0.00001097          -19.36        0.96        1.61
   0.00000650  -0.00009811   0.00002255            0.96      -14.43        3.32
   0.00001097   0.00002255  -0.00011164            1.61        3.32      -16.42


     Writing all to output data dir /home/tenant3/nexus-mat/dft/runs/dft-paper-worker-08/jobs/Pt-Rh-01_Pt6Rh4/tmp/Pt-Rh-01_Pt6Rh4.save/ :
     XML data file, charge density, pseudopotentials, collected wavefunctions

     init_run     :    509.09s CPU   1539.74s WALL (       1 calls)
     electrons    :  28503.52s CPU  76565.43s WALL (       1 calls)
     forces       :    389.10s CPU    976.45s WALL (       1 calls)
     stress       :   1278.61s CPU   3213.36s WALL (       1 calls)

     Called by init_run:
     wfcinit      :    503.18s CPU   1518.26s WALL (       1 calls)
     potinit      :      0.50s CPU      1.71s WALL (       1 calls)
     hinit0       :      0.72s CPU      2.24s WALL (       1 calls)

     Called by electrons:
     c_bands      :  25647.33s CPU  68925.70s WALL (      19 calls)
     sum_band     :   2766.96s CPU   7350.74s WALL (      19 calls)
     v_of_rho     :      7.08s CPU     20.40s WALL (      19 calls)
     newd         :     85.24s CPU    282.12s WALL (      19 calls)
     mix_rho      :      1.11s CPU      2.86s WALL (      19 calls)

     Called by c_bands:
     init_us_2    :     55.88s CPU    148.26s WALL (    2952 calls)
     cegterg      :  25376.26s CPU  68206.50s WALL (    1368 calls)

     Called by *egterg:
     cdiaghg      :    203.24s CPU    544.09s WALL (    3507 calls)
     h_psi        :  10516.69s CPU  28207.76s WALL (    3651 calls)
     s_psi        :   3109.11s CPU   8309.26s WALL (    3651 calls)
     g_psi        :      9.69s CPU     25.75s WALL (    2211 calls)

     Called by h_psi:
     h_psi:calbec :   3753.23s CPU  10031.43s WALL (    3651 calls)
     vloc_psi     :   3639.82s CPU   9739.29s WALL (    3651 calls)
                                        0.00s GPU  (    3651 calls)
     add_vuspsi   :   3110.49s CPU   8313.56s WALL (    3651 calls)

     General routines
     calbec       :   7126.62s CPU  18704.16s WALL (    6243 calls)
     fft          :      5.43s CPU     14.27s WALL (     271 calls)
     ffts         :      0.24s CPU      0.63s WALL (      38 calls)
     fftw         :   4077.27s CPU  10903.39s WALL ( 1114094 calls)
     interpolate  :      0.57s CPU      1.53s WALL (      19 calls)


     PWSCF        :      8h31m CPU     22h51m WALL


   This run was terminated on:   1:15:15  23Jul2026            

=------------------------------------------------------------------------------=
   JOB DONE.
=------------------------------------------------------------------------------=
