
     Program PWSCF v.7.5 starts on 20Jul2026 at 19:33:36 

     This program is part of the open-source Quantum ESPRESSO suite
     for quantum simulation of materials; please cite
         "P. Giannozzi et al., J. Phys.:Condens. Matter 21 395502 (2009);
         "P. Giannozzi et al., J. Phys.:Condens. Matter 29 465901 (2017);
         "P. Giannozzi et al., J. Chem. Phys. 152 154105 (2020);
          URL http://www.quantum-espresso.org", 
     in publications or presentations arising from this work. More details at
     http://www.quantum-espresso.org/quote

     Serial multi-threaded version, running on    1 processor cores
     3213 MiB available memory on the printing compute node when the environment starts

     Reading input from /home/tenant3/nexus-mat/dft/runs/dft-paper-worker-05/jobs/Pd-Rh-08_Pd3Rh5/input.in

     Current dimensions of program PWSCF are:
     Max number of different atomic species (ntypx) = 10
     Max number of k-points (npk) =  40000
     Max angular momentum in pseudopotentials (lmaxx) =  4
     Message from routine setup:
     no reason to have ecutrho>4*ecutwfc


     G-vector sticks info
     --------------------
     sticks:   dense  smooth     PW     G-vecs:    dense   smooth      PW
     Sum        3781    1889    523               350073   123835   18323

     Using Slab Decomposition



     bravais-lattice index     =            0
     lattice parameter (alat)  =       7.3410  a.u.
     unit-cell volume          =     793.9351 (a.u.)^3
     number of atoms/cell      =            8
     number of atomic types    =            2
     number of electrons       =       139.00
     number of Kohn-Sham states=           84
     kinetic-energy cutoff     =     110.0000  Ry
     charge density cutoff     =     880.0000  Ry
     scf convergence threshold =      1.0E-08
     mixing beta               =       0.3000
     number of iterations used =            8  plain     mixing
     Exchange-correlation= PBE
                           (   1   4   3   4   0   0   0)

     celldm(1)=   7.341007  celldm(2)=   0.000000  celldm(3)=   0.000000
     celldm(4)=   0.000000  celldm(5)=   0.000000  celldm(6)=   0.000000

     crystal axes: (cart. coord. in units of alat)
               a(1) = (   0.971910   0.000000  -0.235352 )  
               a(2) = (  -0.056875   0.972391  -0.236660 )  
               a(3) = (   0.000000   0.000000   2.123494 )  

     reciprocal axes: (cart. coord. in units 2 pi/alat)
               b(1) = (  1.028902  0.060180 -0.000000 )  
               b(2) = ( -0.000000  1.028393  0.000000 )  
               b(3) = (  0.114035  0.121282  0.470922 )  


     PseudoPot. # 1 for Pd read from file:
     /home/tenant3/nexus-mat/dft/pseudo/SSSP_1.3.0_PBE_precision/Pd_ONCV_PBE-1.0.oncvpsp.upf
     MD5 check sum: eb77f42b51d86fb18e25f68156a31cf1
     Pseudo is Norm-conserving, Zval = 18.0
     Generated using ONCVPSP code by D. R. Hamann
     Using radial grid of 1410 points,  6 beta functions with: 
                l(1) =   0
                l(2) =   0
                l(3) =   1
                l(4) =   1
                l(5) =   2
                l(6) =   2

     PseudoPot. # 2 for Rh read from file:
     /home/tenant3/nexus-mat/dft/pseudo/SSSP_1.3.0_PBE_precision/Rh_ONCV_PBE-1.0.oncvpsp.upf
     MD5 check sum: ba07c69523b14cacd10683cd4c4284c1
     Pseudo is Norm-conserving, Zval = 17.0
     Generated using ONCVPSP code by D. R. Hamann
     Using radial grid of 1442 points,  6 beta functions with: 
                l(1) =   0
                l(2) =   0
                l(3) =   1
                l(4) =   1
                l(5) =   2
                l(6) =   2

     atomic species   valence    mass     pseudopotential
     Pd               18.00   106.42000     Pd( 1.00)
     Rh               17.00   102.90549     Rh( 1.00)

     No symmetry found



   Cartesian axes

     site n.     atom                  positions (alat units)
         1        Pd     tau(   1) = (   0.8747911   0.6410512  -0.2898124  )
         2        Pd     tau(   2) = (   0.5042976   0.7635116   0.3041694  )
         3        Pd     tau(   3) = (   0.6479790   0.3998786   0.8986619  )
         4        Rh     tau(   4) = (   0.1340572   0.8865266   0.8999141  )
         5        Rh     tau(   5) = (   0.7895939   0.0339788   1.4834938  )
         6        Rh     tau(   6) = (   0.4168807   0.1542565  -0.0555568  )
         7        Rh     tau(   7) = (   0.2756461   0.5206146   1.4848298  )
         8        Rh     tau(   8) = (   0.0467490   0.2773426   0.5398886  )

     number of k points=    98  Marzari-Vanderbilt smearing, width (Ry)=  0.0200
                       cart. coord. in units 2pi/alat
        k(    1) = (   0.0142544   0.0151603   0.0588653), wk =   0.0204082
        k(    2) = (   0.0427633   0.0454809   0.1765958), wk =   0.0204082
        k(    3) = (   0.0142544   0.1620736   0.0588653), wk =   0.0204082
        k(    4) = (   0.0427633   0.1923942   0.1765958), wk =   0.0204082
        k(    5) = (  -0.0427633   0.1014324  -0.1765958), wk =   0.0204082
        k(    6) = (  -0.0142544   0.1317530  -0.0588653), wk =   0.0204082
        k(    7) = (   0.0142544   0.3089869   0.0588653), wk =   0.0204082
        k(    8) = (   0.0427633   0.3393075   0.1765958), wk =   0.0204082
        k(    9) = (  -0.0427633   0.2483456  -0.1765958), wk =   0.0204082
        k(   10) = (  -0.0142544   0.2786662  -0.0588653), wk =   0.0204082
        k(   11) = (   0.0142544   0.4559001   0.0588653), wk =   0.0204082
        k(   12) = (   0.0427633   0.4862207   0.1765958), wk =   0.0204082
        k(   13) = (  -0.0427633   0.3952589  -0.1765958), wk =   0.0204082
        k(   14) = (  -0.0142544   0.4255795  -0.0588653), wk =   0.0204082
        k(   15) = (   0.1612404   0.0237574   0.0588653), wk =   0.0204082
        k(   16) = (   0.1897492   0.0540780   0.1765958), wk =   0.0204082
        k(   17) = (   0.1042226  -0.0368838  -0.1765958), wk =   0.0204082
        k(   18) = (   0.1327315  -0.0065632  -0.0588653), wk =   0.0204082
        k(   19) = (   0.1612404   0.1706707   0.0588653), wk =   0.0204082
        k(   20) = (   0.1897492   0.2009913   0.1765958), wk =   0.0204082
        k(   21) = (   0.1042226   0.1100295  -0.1765958), wk =   0.0204082
        k(   22) = (   0.1327315   0.1403501  -0.0588653), wk =   0.0204082
        k(   23) = (   0.1612404   0.3175840   0.0588653), wk =   0.0204082
        k(   24) = (   0.1897492   0.3479046   0.1765958), wk =   0.0204082
        k(   25) = (   0.1042226   0.2569427  -0.1765958), wk =   0.0204082
        k(   26) = (   0.1327315   0.2872634  -0.0588653), wk =   0.0204082
        k(   27) = (   0.1612404   0.4644972   0.0588653), wk =   0.0204082
        k(   28) = (   0.1897492   0.4948178   0.1765958), wk =   0.0204082
        k(   29) = (   0.1042226   0.4038560  -0.1765958), wk =   0.0204082
        k(   30) = (   0.1327315   0.4341766  -0.0588653), wk =   0.0204082
        k(   31) = (   0.1612404  -0.4169824   0.0588653), wk =   0.0204082
        k(   32) = (   0.1897492  -0.3866618   0.1765958), wk =   0.0204082
        k(   33) = (   0.1042226  -0.4776236  -0.1765958), wk =   0.0204082
        k(   34) = (   0.1327315  -0.4473030  -0.0588653), wk =   0.0204082
        k(   35) = (   0.1612404  -0.2700691   0.0588653), wk =   0.0204082
        k(   36) = (   0.1897492  -0.2397485   0.1765958), wk =   0.0204082
        k(   37) = (   0.1042226  -0.3307104  -0.1765958), wk =   0.0204082
        k(   38) = (   0.1327315  -0.3003897  -0.0588653), wk =   0.0204082
        k(   39) = (   0.1612404  -0.1231559   0.0588653), wk =   0.0204082
        k(   40) = (   0.1897492  -0.0928352   0.1765958), wk =   0.0204082
        k(   41) = (   0.1042226  -0.1837971  -0.1765958), wk =   0.0204082
        k(   42) = (   0.1327315  -0.1534765  -0.0588653), wk =   0.0204082
        k(   43) = (   0.3082263   0.0323545   0.0588653), wk =   0.0204082
        k(   44) = (   0.3367352   0.0626751   0.1765958), wk =   0.0204082
        k(   45) = (   0.2512086  -0.0282867  -0.1765958), wk =   0.0204082
        k(   46) = (   0.2797174   0.0020339  -0.0588653), wk =   0.0204082
        k(   47) = (   0.3082263   0.1792678   0.0588653), wk =   0.0204082
        k(   48) = (   0.3367352   0.2095884   0.1765958), wk =   0.0204082
        k(   49) = (   0.2512086   0.1186266  -0.1765958), wk =   0.0204082
        k(   50) = (   0.2797174   0.1489472  -0.0588653), wk =   0.0204082
        k(   51) = (   0.3082263   0.3261811   0.0588653), wk =   0.0204082
        k(   52) = (   0.3367352   0.3565017   0.1765958), wk =   0.0204082
        k(   53) = (   0.2512086   0.2655399  -0.1765958), wk =   0.0204082
        k(   54) = (   0.2797174   0.2958605  -0.0588653), wk =   0.0204082
        k(   55) = (   0.3082263   0.4730944   0.0588653), wk =   0.0204082
        k(   56) = (   0.3367352   0.5034150   0.1765958), wk =   0.0204082
        k(   57) = (   0.2512086   0.4124531  -0.1765958), wk =   0.0204082
        k(   58) = (   0.2797174   0.4427737  -0.0588653), wk =   0.0204082
        k(   59) = (   0.3082263  -0.4083853   0.0588653), wk =   0.0204082
        k(   60) = (   0.3367352  -0.3780647   0.1765958), wk =   0.0204082
        k(   61) = (   0.2512086  -0.4690265  -0.1765958), wk =   0.0204082
        k(   62) = (   0.2797174  -0.4387059  -0.0588653), wk =   0.0204082
        k(   63) = (   0.3082263  -0.2614720   0.0588653), wk =   0.0204082
        k(   64) = (   0.3367352  -0.2311514   0.1765958), wk =   0.0204082
        k(   65) = (   0.2512086  -0.3221132  -0.1765958), wk =   0.0204082
        k(   66) = (   0.2797174  -0.2917926  -0.0588653), wk =   0.0204082
        k(   67) = (   0.3082263  -0.1145587   0.0588653), wk =   0.0204082
        k(   68) = (   0.3367352  -0.0842381   0.1765958), wk =   0.0204082
        k(   69) = (   0.2512086  -0.1752000  -0.1765958), wk =   0.0204082
        k(   70) = (   0.2797174  -0.1448794  -0.0588653), wk =   0.0204082
        k(   71) = (   0.4552122   0.0409516   0.0588653), wk =   0.0204082
        k(   72) = (   0.4837211   0.0712723   0.1765958), wk =   0.0204082
        k(   73) = (   0.3981945  -0.0196896  -0.1765958), wk =   0.0204082
        k(   74) = (   0.4267034   0.0106310  -0.0588653), wk =   0.0204082
        k(   75) = (   0.4552122   0.1878649   0.0588653), wk =   0.0204082
        k(   76) = (   0.4837211   0.2181855   0.1765958), wk =   0.0204082
        k(   77) = (   0.3981945   0.1272237  -0.1765958), wk =   0.0204082
        k(   78) = (   0.4267034   0.1575443  -0.0588653), wk =   0.0204082
        k(   79) = (   0.4552122   0.3347782   0.0588653), wk =   0.0204082
        k(   80) = (   0.4837211   0.3650988   0.1765958), wk =   0.0204082
        k(   81) = (   0.3981945   0.2741370  -0.1765958), wk =   0.0204082
        k(   82) = (   0.4267034   0.3044576  -0.0588653), wk =   0.0204082
        k(   83) = (   0.4552122   0.4816915   0.0588653), wk =   0.0204082
        k(   84) = (   0.4837211   0.5120121   0.1765958), wk =   0.0204082
        k(   85) = (   0.3981945   0.4210502  -0.1765958), wk =   0.0204082
        k(   86) = (   0.4267034   0.4513709  -0.0588653), wk =   0.0204082
        k(   87) = (   0.4552122  -0.3997882   0.0588653), wk =   0.0204082
        k(   88) = (   0.4837211  -0.3694676   0.1765958), wk =   0.0204082
        k(   89) = (   0.3981945  -0.4604294  -0.1765958), wk =   0.0204082
        k(   90) = (   0.4267034  -0.4301088  -0.0588653), wk =   0.0204082
        k(   91) = (   0.4552122  -0.2528749   0.0588653), wk =   0.0204082
        k(   92) = (   0.4837211  -0.2225543   0.1765958), wk =   0.0204082
        k(   93) = (   0.3981945  -0.3135161  -0.1765958), wk =   0.0204082
        k(   94) = (   0.4267034  -0.2831955  -0.0588653), wk =   0.0204082
        k(   95) = (   0.4552122  -0.1059616   0.0588653), wk =   0.0204082
        k(   96) = (   0.4837211  -0.0756410   0.1765958), wk =   0.0204082
        k(   97) = (   0.3981945  -0.1666029  -0.1765958), wk =   0.0204082
        k(   98) = (   0.4267034  -0.1362822  -0.0588653), wk =   0.0204082

     Dense  grid:   350073 G-vectors     FFT dimensions: (  72,  72, 150)

     Smooth grid:   123835 G-vectors     FFT dimensions: (  50,  50, 108)

     Estimated max dynamical RAM per process >       2.24 GB

     Initial potential from superposition of free atoms

     starting charge     138.9968, renormalised to     139.0000
     Starting wfcs are   80 randomized atomic wfcs +    4 random wfcs

     total cpu time spent up to now is      198.1 secs

     Self-consistent Calculation

     iteration #  1     ecut=   110.00 Ry     beta= 0.30
     Davidson diagonalization with overlap
     ethr =  1.00E-02,  avg # of iterations =  3.0

     Threshold (ethr) on eigenvalues was too large:
     Diagonalizing with lowered threshold

     Davidson diagonalization with overlap
     ethr =  3.86E-05,  avg # of iterations =  2.7

     total cpu time spent up to now is     1453.4 secs

     total energy              =   -1844.19723803 Ry
     estimated scf accuracy    <       0.05215428 Ry

     iteration #  2     ecut=   110.00 Ry     beta= 0.30
     Davidson diagonalization with overlap
     ethr =  3.75E-05,  avg # of iterations =  2.7

     total cpu time spent up to now is     2000.7 secs

     total energy              =   -1844.16651806 Ry
     estimated scf accuracy    <       0.92405084 Ry

     iteration #  3     ecut=   110.00 Ry     beta= 0.30
     Davidson diagonalization with overlap
     ethr =  3.75E-05,  avg # of iterations =  2.6

     total cpu time spent up to now is     2521.7 secs

     total energy              =   -1844.20136054 Ry
     estimated scf accuracy    <       0.15703607 Ry

     iteration #  4     ecut=   110.00 Ry     beta= 0.30
     Davidson diagonalization with overlap
     ethr =  3.75E-05,  avg # of iterations =  1.0

     total cpu time spent up to now is     2959.7 secs

     total energy              =   -1844.20622366 Ry
     estimated scf accuracy    <       0.01184888 Ry

     iteration #  5     ecut=   110.00 Ry     beta= 0.30
     Davidson diagonalization with overlap
     ethr =  8.52E-06,  avg # of iterations =  1.3

     total cpu time spent up to now is     3442.5 secs

     total energy              =   -1844.20597734 Ry
     estimated scf accuracy    <       0.01210757 Ry

     iteration #  6     ecut=   110.00 Ry     beta= 0.30
     Davidson diagonalization with overlap
     ethr =  8.52E-06,  avg # of iterations =  1.1

     total cpu time spent up to now is     3928.5 secs

     total energy              =   -1844.20683591 Ry
     estimated scf accuracy    <       0.00133265 Ry

     iteration #  7     ecut=   110.00 Ry     beta= 0.30
     Davidson diagonalization with overlap
     ethr =  9.59E-07,  avg # of iterations =  1.8

     total cpu time spent up to now is     4393.2 secs

     total energy              =   -1844.20685534 Ry
     estimated scf accuracy    <       0.00145601 Ry

     iteration #  8     ecut=   110.00 Ry     beta= 0.30
     Davidson diagonalization with overlap
     ethr =  9.59E-07,  avg # of iterations =  1.3

     total cpu time spent up to now is     4845.0 secs

     total energy              =   -1844.20683817 Ry
     estimated scf accuracy    <       0.00519643 Ry

     iteration #  9     ecut=   110.00 Ry     beta= 0.30
     Davidson diagonalization with overlap
     ethr =  9.59E-07,  avg # of iterations =  1.0

     total cpu time spent up to now is     5301.1 secs

     total energy              =   -1844.20701551 Ry
     estimated scf accuracy    <       0.00001390 Ry

     iteration # 10     ecut=   110.00 Ry     beta= 0.30
     Davidson diagonalization with overlap
     ethr =  1.00E-08,  avg # of iterations =  2.0

     total cpu time spent up to now is     5816.6 secs

     total energy              =   -1844.20701674 Ry
     estimated scf accuracy    <       0.00000381 Ry

     iteration # 11     ecut=   110.00 Ry     beta= 0.30
     Davidson diagonalization with overlap
     ethr =  2.74E-09,  avg # of iterations =  1.2

     total cpu time spent up to now is     6269.3 secs

     total energy              =   -1844.20701667 Ry
     estimated scf accuracy    <       0.00000437 Ry

     iteration # 12     ecut=   110.00 Ry     beta= 0.30
     Davidson diagonalization with overlap
     ethr =  2.74E-09,  avg # of iterations =  1.0

     total cpu time spent up to now is     6711.8 secs

     total energy              =   -1844.20701705 Ry
     estimated scf accuracy    <       0.00000097 Ry

     iteration # 13     ecut=   110.00 Ry     beta= 0.30
     Davidson diagonalization with overlap
     ethr =  6.98E-10,  avg # of iterations =  1.0

     total cpu time spent up to now is     7184.4 secs

     total energy              =   -1844.20701709 Ry
     estimated scf accuracy    <       0.00000051 Ry

     iteration # 14     ecut=   110.00 Ry     beta= 0.30
     Davidson diagonalization with overlap
     ethr =  3.70E-10,  avg # of iterations =  1.0

     total cpu time spent up to now is     7762.8 secs

     total energy              =   -1844.20701712 Ry
     estimated scf accuracy    <       0.00000044 Ry

     iteration # 15     ecut=   110.00 Ry     beta= 0.30
     Davidson diagonalization with overlap
     ethr =  3.20E-10,  avg # of iterations =  1.0

     total cpu time spent up to now is     8500.8 secs

     total energy              =   -1844.20701713 Ry
     estimated scf accuracy    <       0.00000009 Ry

     iteration # 16     ecut=   110.00 Ry     beta= 0.30
     Davidson diagonalization with overlap
     ethr =  6.21E-11,  avg # of iterations =  1.0

     total cpu time spent up to now is     9214.7 secs

     total energy              =   -1844.20701714 Ry
     estimated scf accuracy    <       0.00000004 Ry

     iteration # 17     ecut=   110.00 Ry     beta= 0.30
     Davidson diagonalization with overlap
     ethr =  2.52E-11,  avg # of iterations =  1.0

     total cpu time spent up to now is     9683.5 secs

     End of self-consistent calculation

          k = 0.0143 0.0152 0.0589 ( 15491 PWs)   bands (ev):

   -63.7398 -63.7389 -63.5557 -57.6209 -57.5584 -57.4918 -57.4863 -57.3598
   -29.4661 -29.4649 -29.4574 -29.4553 -29.4538 -29.4335 -29.2655 -29.2629
   -29.2283 -25.6149 -25.6119 -25.5737 -25.4105 -25.3798 -25.3673 -25.3653
   -25.3522 -25.3498 -25.3113 -25.2637 -25.2610 -25.1816 -25.1784 -25.1677
    13.6240  15.3190  15.5050  15.5580  15.6111  15.6243  15.8733  15.8754
    15.9277  15.9649  16.0537  16.3400  16.3444  16.4651  16.9593  18.0282
    18.0754  18.0965  18.8760  18.8803  18.9170  19.2720  19.2743  19.3907
    19.7217  19.8277  19.8285  19.8297  20.1787  20.3151  20.3187  20.3317
    20.4546  20.6808  20.8884  20.9591  21.3025  21.4087  21.4171  21.5470
    21.5506  21.5693  21.9087  23.9738  25.7509  25.7932  27.4171  27.4587
    31.5962  31.6970  31.8783  32.1432

          k = 0.0428 0.0455 0.1766 ( 15496 PWs)   bands (ev):

   -63.7397 -63.7390 -63.5557 -57.6209 -57.5584 -57.4935 -57.4846 -57.3598
   -29.4668 -29.4653 -29.4565 -29.4548 -29.4530 -29.4345 -29.2656 -29.2629
   -29.2282 -25.6151 -25.6120 -25.5690 -25.4116 -25.4075 -25.3695 -25.3675
   -25.3474 -25.3443 -25.2726 -25.2681 -25.2661 -25.1823 -25.1794 -25.1768
    14.0042  14.7057  15.3125  15.3490  15.5150  15.6401  15.6410  15.7744
    15.8003  16.0739  16.3172  16.4403  17.0098  17.0169  17.4059  17.8207
    17.8719  17.8797  18.3326  18.3508  18.6868  18.7013  19.0232  19.5116
    19.7527  19.9340  20.0545  20.1038  20.4592  20.4655  20.7775  20.8587
    21.0190  21.0307  21.0617  21.2044  21.4107  21.4130  21.4148  21.5463
    21.5507  21.5650  21.9087  22.5872  24.4177  24.4639  29.1362  29.1783
    30.7897  30.8331  31.4117  31.6022

          k = 0.0143 0.1621 0.0589 ( 15483 PWs)   bands (ev):

   -63.7397 -63.7389 -63.5557 -57.6177 -57.5611 -57.4923 -57.4861 -57.3600
   -29.4659 -29.4647 -29.4592 -29.4545 -29.4526 -29.4348 -29.2650 -29.2622
   -29.2277 -25.6058 -25.6009 -25.5685 -25.4325 -25.3984 -25.3739 -25.3629
   -25.3516 -25.3420 -25.2961 -25.2697 -25.2658 -25.1818 -25.1790 -25.1691
    13.9422  15.4654  15.5206  15.5911  15.6430  15.8042  15.8779  15.9684
    16.1189  16.1586  16.2920  16.4540  16.5767  16.6801  17.1465  17.8862
    18.1659  18.1823  18.3952  18.5760  18.6284  18.8357  19.0557  19.3113
    19.6151  19.8132  19.9377  19.9920  20.1003  20.2707  20.2885  20.3939
    20.4782  20.5904  20.8265  20.9995  21.1338  21.1558  21.2171  21.2555
    21.4049  21.5581  21.6550  24.2748  24.6968  26.1160  26.5376  28.4791
    29.5851  31.4933  32.0302  32.3117

          k = 0.0428 0.1924 0.1766 ( 15497 PWs)   bands (ev):

   -63.7396 -63.7390 -63.5557 -57.6176 -57.5611 -57.4935 -57.4849 -57.3601
   -29.4664 -29.4649 -29.4593 -29.4540 -29.4522 -29.4350 -29.2650 -29.2622
   -29.2277 -25.6066 -25.6011 -25.5652 -25.4314 -25.4135 -25.3755 -25.3646
   -25.3472 -25.3312 -25.2887 -25.2736 -25.2657 -25.1840 -25.1783 -25.1714
    14.3995  14.6966  15.4227  15.4762  15.7163  15.7591  15.7734  15.9046
    15.9804  16.1144  16.4976  16.6249  17.2007  17.2468  17.5250  17.5317
    17.6137  17.7849  18.3879  18.4283  18.5403  18.5703  19.1061  19.4735
    19.5706  19.7287  19.8682  19.9708  20.0364  20.1051  20.5740  20.6874
    20.7059  20.9070  20.9328  21.0958  21.1779  21.2541  21.2636  21.3264
    21.5474  21.7185  22.5326  23.1779  23.2138  25.2788  27.8737  28.4034
    30.1372  30.8365  31.9315  32.0231

          k =-0.0428 0.1014-0.1766 ( 15476 PWs)   bands (ev):

   -63.7397 -63.7389 -63.5557 -57.6177 -57.5611 -57.4929 -57.4854 -57.3601
   -29.4661 -29.4648 -29.4592 -29.4542 -29.4525 -29.4349 -29.2650 -29.2622
   -29.2277 -25.6062 -25.6010 -25.5669 -25.4319 -25.4069 -25.3748 -25.3633
   -25.3493 -25.3369 -25.2900 -25.2716 -25.2677 -25.1821 -25.1787 -25.1707
    14.0989  15.1318  15.4900  15.5258  15.6268  15.7811  15.8534  15.8653
    16.0552  16.2960  16.3374  16.4710  16.8506  16.9007  17.3256  17.8192
    17.9385  18.1459  18.2927  18.3535  18.5975  18.8195  19.0777  19.2176
    19.5675  19.8208  19.8946  20.1208  20.2069  20.2282  20.2729  20.5279
    20.5636  20.7753  20.9239  21.0951  21.1170  21.1970  21.2244  21.2491
    21.5376  21.6674  21.8013  23.7168  24.0960  25.6442  27.1271  29.0822
    29.1890  31.7312  31.8136  32.0529

          k =-0.0143 0.1318-0.0589 ( 15471 PWs)   bands (ev):

   -63.7397 -63.7389 -63.5557 -57.6177 -57.5611 -57.4915 -57.4869 -57.3600
   -29.4656 -29.4646 -29.4590 -29.4547 -29.4530 -29.4347 -29.2649 -29.2622
   -29.2277 -25.6054 -25.6008 -25.5701 -25.4330 -25.3878 -25.3728 -25.3663
   -25.3539 -25.3441 -25.3042 -25.2678 -25.2632 -25.1823 -25.1794 -25.1669
    13.8359  15.4665  15.7507  15.7629  15.8292  15.8595  15.9135  16.0300
    16.0668  16.0673  16.1937  16.2672  16.3923  16.6692  16.9158  17.9129
    18.1683  18.1876  18.4624  18.5472  19.0126  19.0571  19.4202  19.4612
    19.5786  19.5878  19.6969  19.8057  19.8409  19.9668  20.3654  20.4662
    20.6159  20.6686  20.7402  20.8581  20.9775  21.1387  21.1663  21.2065
    21.2669  21.5859  21.6763  25.0639  25.2066  25.7282  26.8979  27.5577
    30.2726  30.8070  32.0132  32.0659

          k = 0.0143 0.3090 0.0589 ( 15464 PWs)   bands (ev):

   -63.7394 -63.7389 -63.5558 -57.6086 -57.5692 -57.4924 -57.4864 -57.3606
   -29.4655 -29.4638 -29.4621 -29.4534 -29.4518 -29.4365 -29.2639 -29.2604
   -29.2264 -25.5842 -25.5687 -25.5565 -25.4701 -25.4200 -25.3959 -25.3621
   -25.3533 -25.3343 -25.2868 -25.2824 -25.2784 -25.1819 -25.1770 -25.1662
    14.7169  15.7494  15.8466  15.9162  16.0434  16.0829  16.2832  16.3575
    16.4496  16.5959  16.6782  16.8016  16.8874  17.1733  17.3369  17.5408
    17.6496  18.0606  18.1452  18.3876  18.4954  18.5233  18.9333  19.0179
    19.0687  19.2496  19.3175  19.6899  19.7541  19.8981  20.1223  20.1363
    20.1898  20.3695  20.6049  20.6114  20.6769  20.8583  20.8843  21.0407
    21.1954  21.6460  22.1256  22.9568  24.8500  25.9601  27.1435  27.4738
    30.2264  30.5858  32.0344  32.2359

          k = 0.0428 0.3393 0.1766 ( 15467 PWs)   bands (ev):

   -63.7394 -63.7389 -63.5558 -57.6086 -57.5692 -57.4930 -57.4859 -57.3606
   -29.4654 -29.4640 -29.4626 -29.4532 -29.4521 -29.4358 -29.2639 -29.2604
   -29.2265 -25.5858 -25.5688 -25.5558 -25.4674 -25.4228 -25.3965 -25.3601
   -25.3511 -25.3223 -25.3052 -25.2849 -25.2744 -25.1815 -25.1780 -25.1632
    15.0996  15.2020  15.7291  15.8957  15.9977  16.2208  16.2742  16.3423
    16.4164  16.4714  16.8369  16.9062  17.2835  17.2943  17.3127  17.4377
    17.5502  17.7133  18.4235  18.4740  18.5250  18.5488  18.6213  18.6732
    19.0115  19.3188  19.3554  19.5848  19.8247  20.2108  20.2566  20.3316
    20.4600  20.4726  20.6062  20.6923  20.7094  20.7618  20.8870  20.9810
    21.0594  21.2411  21.7205  24.2060  24.4724  25.9059  26.0763  27.0820
    31.5726  31.7317  31.8041  32.4117

          k =-0.0428 0.2483-0.1766 ( 15452 PWs)   bands (ev):

   -63.7394 -63.7389 -63.5558 -57.6086 -57.5692 -57.4922 -57.4866 -57.3606
   -29.4656 -29.4637 -29.4619 -29.4534 -29.4519 -29.4367 -29.2639 -29.2604
   -29.2264 -25.5838 -25.5687 -25.5567 -25.4707 -25.4193 -25.3958 -25.3632
   -25.3539 -25.3350 -25.2852 -25.2817 -25.2783 -25.1820 -25.1768 -25.1670
    14.6716  15.8404  15.8857  15.9264  16.0210  16.1109  16.2670  16.3757
    16.4166  16.6179  16.7181  16.7348  16.8137  17.1289  17.2999  17.5409
    17.7430  18.0176  18.2277  18.3517  18.4980  18.5319  18.9970  19.0702
    19.0973  19.2136  19.3128  19.6195  19.7138  19.8941  20.0536  20.1004
    20.2077  20.3524  20.5956  20.6062  20.6798  20.8654  20.8921  21.0896
    21.2014  21.6425  22.2828  22.7943  24.6790  26.1880  27.3339  27.5960
    30.0065  30.3196  32.0126  32.2069

          k =-0.0143 0.2787-0.0589 ( 15457 PWs)   bands (ev):

   -63.7395 -63.7388 -63.5558 -57.6086 -57.5692 -57.4915 -57.4873 -57.3605
   -29.4657 -29.4634 -29.4613 -29.4537 -29.4516 -29.4375 -29.2639 -29.2604
   -29.2263 -25.5821 -25.5686 -25.5572 -25.4738 -25.4153 -25.3952 -25.3695
   -25.3561 -25.3342 -25.2883 -25.2799 -25.2689 -25.1826 -25.1762 -25.1700
    14.5329  15.8889  16.0705  16.1085  16.2163  16.2171  16.3100  16.3534
    16.3982  16.4282  16.4752  16.7260  16.7873  16.9379  17.0887  17.5349
    17.9674  18.0228  18.4073  18.4270  18.5913  18.7824  18.8285  18.8924
    19.2030  19.3482  19.3565  19.4082  19.5883  19.6305  19.9035  20.1146
    20.2340  20.3968  20.5462  20.6113  20.6971  20.7036  20.9793  21.0737
    21.6835  21.6913  21.8132  23.4329  23.6236  27.0594  28.5654  28.5831
    28.7566  28.8155  31.7349  31.9937

          k = 0.0143 0.4559 0.0589 ( 15451 PWs)   bands (ev):

   -63.7392 -63.7389 -63.5559 -57.5959 -57.5811 -57.4922 -57.4870 -57.3610
   -29.4657 -29.4648 -29.4616 -29.4528 -29.4520 -29.4376 -29.2631 -29.2588
   -29.2254 -25.5604 -25.5387 -25.5303 -25.5041 -25.4405 -25.4277 -25.3655
   -25.3552 -25.3269 -25.3033 -25.2909 -25.2695 -25.1832 -25.1755 -25.1622
    15.6937  15.9883  16.2640  16.3521  16.4546  16.5944  16.7756  16.9532
    16.9771  17.0383  17.0427  17.1089  17.1221  17.1860  17.3760  17.3820
    17.4670  17.6265  17.7101  17.8204  18.0214  18.2041  18.4191  18.9076
    19.0039  19.1121  19.2314  19.2423  19.3474  19.6673  19.7813  19.8912
    19.9254  20.0123  20.1107  20.1317  20.2527  20.4786  20.5770  20.9607
    21.1151  21.5782  21.6697  23.5200  24.6379  25.1414  27.0045  29.2065
    29.8791  31.5707  31.8560  32.3494

          k = 0.0428 0.4862 0.1766 ( 15471 PWs)   bands (ev):

   -63.7392 -63.7389 -63.5559 -57.5959 -57.5811 -57.4923 -57.4869 -57.3610
   -29.4659 -29.4647 -29.4616 -29.4528 -29.4521 -29.4374 -29.2631 -29.2588
   -29.2254 -25.5610 -25.5388 -25.5303 -25.5033 -25.4403 -25.4277 -25.3647
   -25.3549 -25.3258 -25.3060 -25.2912 -25.2694 -25.1831 -25.1758 -25.1615
    15.7957  15.9492  16.1349  16.3372  16.4334  16.6811  16.8235  16.9443
    16.9841  17.0068  17.0429  17.0636  17.0930  17.1856  17.4218  17.4679
    17.5024  17.6447  17.6564  17.7402  18.0225  18.2261  18.3529  18.9169
    18.9882  19.1858  19.2149  19.2318  19.4632  19.6563  19.7828  19.9102
    19.9420  20.0206  20.0996  20.1055  20.1475  20.5489  20.6725  20.9645
    21.0170  21.3590  21.6974  23.8377  24.6473  25.2244  26.4591  29.0956
    30.4539  31.7311  31.8426  32.4602

          k =-0.0428 0.3953-0.1766 ( 15460 PWs)   bands (ev):

   -63.7392 -63.7389 -63.5559 -57.5959 -57.5811 -57.4920 -57.4872 -57.3610
   -29.4660 -29.4643 -29.4614 -29.4528 -29.4517 -29.4382 -29.2631 -29.2588
   -29.2253 -25.5588 -25.5374 -25.5302 -25.5074 -25.4412 -25.4276 -25.3681
   -25.3561 -25.3264 -25.3013 -25.2898 -25.2666 -25.1834 -25.1747 -25.1650
    15.5053  16.1896  16.3491  16.5013  16.5554  16.5689  16.6791  16.8186
    16.8617  16.9733  16.9989  17.0748  17.1214  17.2133  17.3351  17.3480
    17.5551  17.6841  17.8520  17.9935  18.0103  18.1324  18.4728  18.7616
    18.9325  19.0510  19.2208  19.3085  19.3330  19.6688  19.7729  19.8065
    19.8657  19.9886  20.0446  20.0766  20.1695  20.5059  20.6174  21.1195
    21.3821  21.6644  22.1691  22.7850  23.6802  26.1126  28.3008  28.4545
    29.7254  31.0845  31.2655  31.8144

          k =-0.0143 0.4256-0.0589 ( 15450 PWs)   bands (ev):

   -63.7392 -63.7388 -63.5559 -57.5959 -57.5811 -57.4919 -57.4873 -57.3610
   -29.4660 -29.4642 -29.4614 -29.4529 -29.4516 -29.4384 -29.2631 -29.2588
   -29.2253 -25.5584 -25.5365 -25.5302 -25.5088 -25.4413 -25.4276 -25.3690
   -25.3564 -25.3252 -25.3020 -25.2895 -25.2653 -25.1835 -25.1746 -25.1658
    15.4655  16.3015  16.3345  16.5222  16.5850  16.6115  16.6733  16.7375
    16.7958  16.9595  16.9616  17.0549  17.1149  17.2314  17.2762  17.3304
    17.6843  17.7932  17.8894  18.0020  18.0132  18.0943  18.3371  18.8107
    18.9433  19.0628  19.1698  19.2801  19.3976  19.6282  19.7173  19.8163
    19.8834  19.9800  20.0302  20.0555  20.1152  20.5077  20.7140  21.0279
    21.6457  21.6893  22.2619  22.6681  23.3319  26.5680  27.8388  28.7901
    30.0128  30.8765  30.9839  31.6421

          k = 0.1612 0.0238 0.0589 ( 15481 PWs)   bands (ev):

   -63.7397 -63.7389 -63.5557 -57.6177 -57.5611 -57.4922 -57.4861 -57.3600
   -29.4662 -29.4644 -29.4594 -29.4541 -29.4528 -29.4348 -29.2649 -29.2622
   -29.2277 -25.6059 -25.6009 -25.5686 -25.4324 -25.3987 -25.3728 -25.3638
   -25.3513 -25.3430 -25.2956 -25.2700 -25.2655 -25.1817 -25.1790 -25.1689
    13.9432  15.4664  15.5216  15.5920  15.6438  15.8034  15.8770  15.9711
    16.1198  16.1593  16.2922  16.4529  16.5718  16.6852  17.1451  17.8974
    18.1548  18.1887  18.3877  18.5682  18.6242  18.8331  19.0633  19.3146
    19.6302  19.8016  19.9343  19.9944  20.1049  20.2614  20.2914  20.3951
    20.4821  20.5970  20.8290  20.9995  21.1357  21.1541  21.2127  21.2525
    21.4096  21.5509  21.6479  24.3102  24.7055  26.0791  26.5757  28.4390
    29.6206  31.4977  31.9811  32.2801

          k = 0.1897 0.0541 0.1766 ( 15497 PWs)   bands (ev):

   -63.7396 -63.7390 -63.5557 -57.6176 -57.5611 -57.4934 -57.4849 -57.3601
   -29.4666 -29.4647 -29.4595 -29.4536 -29.4523 -29.4350 -29.2649 -29.2622
   -29.2277 -25.6067 -25.6011 -25.5653 -25.4314 -25.4136 -25.3745 -25.3655
   -25.3468 -25.3319 -25.2884 -25.2739 -25.2657 -25.1834 -25.1790 -25.1710
    14.4003  14.6976  15.4237  15.4776  15.7163  15.7604  15.7743  15.9057
    15.9794  16.1135  16.4984  16.6257  17.2062  17.2396  17.5311  17.5318
    17.6069  17.7823  18.4043  18.4100  18.5246  18.5844  19.1105  19.4794
    19.5768  19.7342  19.8710  19.9774  20.0307  20.0973  20.5672  20.6832
    20.7048  20.9068  20.9235  21.0951  21.1782  21.2486  21.2653  21.3315
    21.5447  21.7070  22.5416  23.1994  23.2442  25.2430  27.9138  28.4403
    30.0959  30.7952  31.8749  31.9741

          k = 0.1042-0.0369-0.1766 ( 15475 PWs)   bands (ev):

   -63.7397 -63.7389 -63.5557 -57.6177 -57.5611 -57.4929 -57.4854 -57.3601
   -29.4664 -29.4646 -29.4594 -29.4539 -29.4526 -29.4349 -29.2649 -29.2622
   -29.2277 -25.6063 -25.6010 -25.5669 -25.4319 -25.4072 -25.3737 -25.3642
   -25.3490 -25.3375 -25.2896 -25.2719 -25.2676 -25.1818 -25.1792 -25.1704
    14.1001  15.1323  15.4909  15.5266  15.6281  15.7807  15.8551  15.8646
    16.0563  16.2948  16.3383  16.4714  16.8446  16.9067  17.3243  17.8248
    17.9428  18.1398  18.3009  18.3359  18.5844  18.8319  19.0785  19.2212
    19.5786  19.8191  19.8931  20.1199  20.2112  20.2235  20.2737  20.5208
    20.5630  20.7811  20.9264  21.0972  21.1101  21.1948  21.2253  21.2439
    21.5326  21.6603  21.8103  23.7546  24.1044  25.6075  27.1631  29.1230
    29.1491  31.6884  31.7716  32.0042

          k = 0.1327-0.0066-0.0589 ( 15469 PWs)   bands (ev):

   -63.7397 -63.7389 -63.5557 -57.6177 -57.5611 -57.4914 -57.4869 -57.3600
   -29.4660 -29.4643 -29.4592 -29.4544 -29.4532 -29.4347 -29.2649 -29.2622
   -29.2277 -25.6055 -25.6008 -25.5701 -25.4329 -25.3883 -25.3718 -25.3671
   -25.3536 -25.3451 -25.3034 -25.2680 -25.2628 -25.1825 -25.1793 -25.1668
    13.8371  15.4676  15.7510  15.7623  15.8296  15.8604  15.9141  16.0305
    16.0652  16.0679  16.1973  16.2641  16.3971  16.6678  16.9144  17.9327
    18.1677  18.1683  18.4555  18.5412  19.0077  19.0647  19.4190  19.4678
    19.5741  19.5998  19.7048  19.7941  19.8347  19.9687  20.3667  20.4693
    20.6201  20.6784  20.7397  20.8583  20.9793  21.1407  21.1653  21.2039
    21.2661  21.5812  21.6641  25.0937  25.2212  25.7630  26.8594  27.5191
    30.3098  30.8338  31.9642  32.0588

          k = 0.1612 0.1707 0.0589 ( 15476 PWs)   bands (ev):

   -63.7396 -63.7389 -63.5558 -57.6147 -57.5636 -57.4926 -57.4861 -57.3603
   -29.4662 -29.4647 -29.4613 -29.4539 -29.4518 -29.4357 -29.2653 -29.2609
   -29.2270 -25.6307 -25.5641 -25.5582 -25.4452 -25.4241 -25.3729 -25.3646
   -25.3552 -25.3246 -25.2919 -25.2819 -25.2626 -25.1839 -25.1753 -25.1691
    14.2654  15.3625  15.6359  15.6612  15.7179  15.9789  15.9935  16.0363
    16.1020  16.3562  16.4326  16.5979  16.8242  16.9151  17.3937  17.7861
    18.1118  18.1939  18.2712  18.3546  18.5472  18.7231  18.7583  19.3446
    19.5886  19.7068  19.7400  19.8390  19.9243  20.0615  20.1270  20.1681
    20.2900  20.5345  20.6904  20.7648  21.0536  21.1189  21.2430  21.3679
    21.5199  21.5988  21.9403  24.6352  24.7020  25.0045  27.2284  27.2627
    29.6553  29.7126  32.1056  32.4983

          k = 0.1897 0.2010 0.1766 ( 15459 PWs)   bands (ev):

   -63.7395 -63.7389 -63.5558 -57.6147 -57.5636 -57.4933 -57.4854 -57.3603
   -29.4663 -29.4646 -29.4620 -29.4530 -29.4525 -29.4353 -29.2653 -29.2609
   -29.2271 -25.6315 -25.5626 -25.5579 -25.4460 -25.4286 -25.3744 -25.3594
   -25.3452 -25.3316 -25.2921 -25.2861 -25.2606 -25.1856 -25.1742 -25.1686
    14.6731  14.7821  15.5759  15.6115  15.8549  15.8609  15.8683  15.9360
    16.2251  16.2986  16.6441  16.7693  16.9608  17.0936  17.5756  17.6276
    17.7923  17.8951  18.3711  18.4454  18.4878  18.5276  19.1391  19.3347
    19.4826  19.6432  19.6596  19.8669  19.9170  19.9642  20.1314  20.1961
    20.2551  20.4285  20.9833  21.0153  21.0965  21.1710  21.2189  21.3513
    21.5131  21.5670  23.2730  23.5571  24.1555  24.2443  28.0098  28.0368
    28.9249  28.9890  32.9817  33.1333

          k = 0.1042 0.1100-0.1766 ( 15478 PWs)   bands (ev):

   -63.7396 -63.7389 -63.5558 -57.6147 -57.5636 -57.4924 -57.4863 -57.3603
   -29.4661 -29.4648 -29.4611 -29.4535 -29.4524 -29.4357 -29.2653 -29.2609
   -29.2270 -25.6304 -25.5645 -25.5582 -25.4451 -25.4229 -25.3736 -25.3662
   -25.3550 -25.3239 -25.2927 -25.2801 -25.2633 -25.1836 -25.1758 -25.1690
    14.2174  15.4622  15.6390  15.6749  15.7238  16.0082  16.0181  16.0404
    16.1193  16.2933  16.3642  16.6518  16.7737  16.8560  17.3454  17.8093
    18.1777  18.2487  18.2637  18.3763  18.5562  18.6786  18.7736  19.3837
    19.5357  19.6904  19.7759  19.8746  19.8981  20.0316  20.1221  20.1650
    20.3214  20.5818  20.6423  20.7343  21.0359  21.1197  21.2400  21.3502
    21.5208  21.5828  21.7625  24.7754  24.8380  25.2216  27.0558  27.0878
    29.8159  29.8771  31.9770  32.2965

          k = 0.1327 0.1404-0.0589 ( 15455 PWs)   bands (ev):

   -63.7396 -63.7388 -63.5558 -57.6147 -57.5636 -57.4913 -57.4873 -57.3603
   -29.4659 -29.4650 -29.4604 -29.4538 -29.4523 -29.4362 -29.2654 -29.2609
   -29.2270 -25.6295 -25.5663 -25.5583 -25.4449 -25.4151 -25.3840 -25.3670
   -25.3531 -25.3218 -25.3000 -25.2685 -25.2670 -25.1828 -25.1778 -25.1684
    14.0700  15.5787  15.8853  15.9205  15.9290  15.9495  15.9626  16.0023
    16.0518  16.3413  16.3768  16.4037  16.4503  16.9252  17.0910  17.8532
    18.2071  18.2373  18.3010  18.3739  18.8933  18.9917  19.1733  19.2220
    19.2718  19.3434  19.6280  19.6464  19.9981  20.1144  20.2828  20.4071
    20.4519  20.5465  20.6645  20.7216  20.7602  20.9274  21.1759  21.2524
    21.2775  21.5474  21.5852  25.7711  25.8137  25.9364  26.0000  26.0692
    30.8403  30.9084  31.0524  31.1436

          k = 0.1612 0.3176 0.0589 ( 15456 PWs)   bands (ev):

   -63.7393 -63.7389 -63.5559 -57.6064 -57.5707 -57.4925 -57.4868 -57.3608
   -29.4661 -29.4656 -29.4633 -29.4537 -29.4521 -29.4369 -29.2646 -29.2595
   -29.2256 -25.6345 -25.5535 -25.5066 -25.4757 -25.4642 -25.3746 -25.3667
   -25.3511 -25.3183 -25.2993 -25.2829 -25.2705 -25.1826 -25.1743 -25.1638
    14.9737  15.5207  15.9191  16.0129  16.0880  16.2038  16.2577  16.3781
    16.4925  16.5562  16.6104  16.9918  17.0652  17.2095  17.5932  17.6995
    17.9546  18.1809  18.2570  18.4229  18.4506  18.4966  18.5811  18.8493
    18.9586  19.0999  19.3669  19.4276  19.5219  19.6680  19.7989  19.9751
    20.1611  20.2613  20.4535  20.7012  20.8259  20.9520  21.0238  21.1806
    21.3148  21.5277  22.5714  23.4605  25.2606  25.8612  25.9885  26.6530
    29.0124  30.3448  30.7913  31.5888

          k = 0.1897 0.3479 0.1766 ( 15458 PWs)   bands (ev):

   -63.7393 -63.7389 -63.5559 -57.6064 -57.5707 -57.4927 -57.4866 -57.3608
   -29.4661 -29.4655 -29.4636 -29.4533 -29.4527 -29.4366 -29.2645 -29.2595
   -29.2257 -25.6349 -25.5533 -25.5066 -25.4755 -25.4646 -25.3752 -25.3611
   -25.3492 -25.3248 -25.3009 -25.2827 -25.2701 -25.1828 -25.1744 -25.1624
    15.0750  15.3855  15.9100  16.0227  16.1238  16.1552  16.2320  16.3269
    16.5774  16.6277  16.6918  16.8764  17.0369  17.1661  17.6297  17.6948
    17.9926  18.1614  18.3329  18.4296  18.4556  18.4879  18.5729  18.7333
    18.9563  19.0596  19.3476  19.4851  19.5919  19.7152  19.8119  19.9442
    20.1692  20.2806  20.5202  20.6697  20.8018  20.9366  21.0035  21.1254
    21.2951  21.5297  22.4655  23.9494  25.2644  25.6207  25.8898  26.3635
    29.2706  30.0303  31.0353  31.7895

          k = 0.1042 0.2569-0.1766 ( 15447 PWs)   bands (ev):

   -63.7393 -63.7388 -63.5559 -57.6064 -57.5707 -57.4918 -57.4875 -57.3608
   -29.4660 -29.4658 -29.4625 -29.4533 -29.4518 -29.4383 -29.2646 -29.2595
   -29.2255 -25.6331 -25.5542 -25.5066 -25.4764 -25.4628 -25.3832 -25.3721
   -25.3495 -25.3124 -25.2901 -25.2828 -25.2708 -25.1819 -25.1739 -25.1688
    14.7960  15.8478  15.9585  15.9950  16.0685  16.2430  16.2744  16.3423
    16.4324  16.4560  16.6022  16.9690  17.0873  17.3319  17.5404  17.6750
    17.9729  18.0841  18.2591  18.4020  18.5074  18.5460  18.7026  18.8797
    19.0317  19.1262  19.1742  19.2913  19.5192  19.6006  19.7742  19.9324
    20.2025  20.2725  20.3339  20.7098  20.9651  21.0334  21.1374  21.2270
    21.3841  21.5141  22.3751  23.1172  24.4805  26.4190  27.1035  27.1441
    28.6818  30.1858  30.3730  31.2501

          k = 0.1327 0.2873-0.0589 ( 15448 PWs)   bands (ev):

   -63.7394 -63.7388 -63.5559 -57.6064 -57.5707 -57.4915 -57.4877 -57.3608
   -29.4660 -29.4659 -29.4622 -29.4535 -29.4515 -29.4388 -29.2646 -29.2595
   -29.2254 -25.6327 -25.5544 -25.5066 -25.4767 -25.4621 -25.3872 -25.3714
   -25.3486 -25.3123 -25.2900 -25.2799 -25.2707 -25.1817 -25.1737 -25.1704
    14.7588  15.9260  15.9807  16.0412  16.0952  16.1947  16.2088  16.2564
    16.4260  16.5541  16.7066  16.8657  16.9880  17.4303  17.5352  17.6538
    17.9599  18.0643  18.3265  18.4045  18.5465  18.6048  18.7771  18.8077
    18.9149  19.0297  19.1858  19.3042  19.5382  19.6348  19.7249  19.9366
    20.2313  20.3038  20.3415  20.5910  21.0151  21.0766  21.1836  21.3087
    21.4131  21.5138  22.0334  23.3946  24.1627  26.6349  27.1017  27.4698
    28.8245  29.7290  30.2577  31.6243

          k = 0.1612 0.4645 0.0589 ( 15473 PWs)   bands (ev):

   -63.7391 -63.7389 -63.5560 -57.5947 -57.5814 -57.4921 -57.4876 -57.3612
   -29.4681 -29.4650 -29.4630 -29.4537 -29.4528 -29.4384 -29.2635 -29.2589
   -29.2245 -25.6228 -25.5368 -25.5066 -25.5026 -25.4645 -25.3841 -25.3650
   -25.3464 -25.3214 -25.3081 -25.2858 -25.2691 -25.1816 -25.1749 -25.1602
    15.7706  15.8985  16.1180  16.3712  16.4404  16.4809  16.5583  16.6022
    16.6595  16.9519  17.0081  17.1446  17.3667  17.4702  17.5633  17.6979
    17.7877  17.9608  18.0246  18.1822  18.2238  18.3190  18.3950  18.6494
    18.6777  18.8042  18.8486  18.9846  19.3304  19.5365  19.7537  19.9234
    20.0806  20.1932  20.3063  20.4203  20.5214  20.7964  20.9071  21.0539
    21.1631  21.2642  21.4827  23.7533  24.5759  25.2549  26.6113  27.4663
    29.6551  30.3217  30.4634  30.8598

          k = 0.1897 0.4948 0.1766 ( 15466 PWs)   bands (ev):

   -63.7391 -63.7389 -63.5560 -57.5947 -57.5814 -57.4921 -57.4877 -57.3612
   -29.4680 -29.4652 -29.4629 -29.4536 -29.4527 -29.4387 -29.2635 -29.2589
   -29.2244 -25.6225 -25.5367 -25.5069 -25.5027 -25.4645 -25.3834 -25.3672
   -25.3491 -25.3164 -25.3075 -25.2867 -25.2690 -25.1813 -25.1748 -25.1611
    15.7297  15.9505  16.1172  16.3485  16.4507  16.4828  16.5437  16.6200
    16.6394  16.9618  16.9829  17.2201  17.2899  17.4564  17.5748  17.7624
    17.8457  17.9621  18.0385  18.1310  18.1963  18.3273  18.3906  18.6169
    18.6715  18.8460  18.8768  19.0101  19.2362  19.5317  19.6599  19.9035
    20.0576  20.1595  20.4017  20.4378  20.5611  20.8089  20.8528  21.0811
    21.1747  21.4247  21.5045  23.4396  24.6502  25.0511  27.1966  27.5281
    29.4357  30.1315  30.2705  30.6398

          k = 0.1042 0.4039-0.1766 ( 15462 PWs)   bands (ev):

   -63.7391 -63.7388 -63.5560 -57.5947 -57.5814 -57.4917 -57.4880 -57.3612
   -29.4675 -29.4659 -29.4624 -29.4535 -29.4521 -29.4398 -29.2635 -29.2589
   -29.2243 -25.6214 -25.5355 -25.5094 -25.5025 -25.4646 -25.3874 -25.3709
   -25.3476 -25.3123 -25.3031 -25.2897 -25.2651 -25.1805 -25.1755 -25.1643
    15.6347  16.1389  16.1695  16.2337  16.3112  16.4239  16.5338  16.5919
    16.9407  16.9593  17.0469  17.1084  17.1991  17.4096  17.6720  17.8192
    17.8812  18.0051  18.0812  18.1635  18.2449  18.2999  18.3195  18.5040
    18.6110  18.8502  19.0421  19.1213  19.2091  19.3320  19.4855  19.6973
    19.9298  20.0922  20.3430  20.5395  20.6882  20.8558  20.9731  21.0990
    21.4619  21.6319  22.1987  22.5597  23.2320  26.4690  27.4907  28.7753
    28.8395  29.1384  29.2919  31.8059

          k = 0.1327 0.4342-0.0589 ( 15474 PWs)   bands (ev):

   -63.7391 -63.7388 -63.5560 -57.5947 -57.5814 -57.4918 -57.4879 -57.3612
   -29.4675 -29.4658 -29.4625 -29.4536 -29.4522 -29.4395 -29.2635 -29.2589
   -29.2244 -25.6217 -25.5358 -25.5088 -25.5025 -25.4646 -25.3859 -25.3706
   -25.3490 -25.3124 -25.3031 -25.2893 -25.2667 -25.1807 -25.1751 -25.1637
    15.6512  16.0886  16.1427  16.2679  16.3718  16.4447  16.5137  16.5998
    16.8575  16.9430  17.0214  17.1140  17.2509  17.5239  17.5881  17.8298
    17.8883  17.9559  18.0324  18.1361  18.2800  18.3064  18.3731  18.5004
    18.6100  18.9058  19.0092  19.0619  19.1587  19.3539  19.5611  19.7957
    19.9289  20.0556  20.4395  20.5194  20.6267  20.8255  21.0003  21.1217
    21.3764  21.4613  22.0539  22.7144  23.6054  26.0236  27.6551  28.5968
    28.9643  29.1364  29.4040  31.4573

          k = 0.1612-0.4170 0.0589 ( 15465 PWs)   bands (ev):

   -63.7391 -63.7388 -63.5560 -57.5946 -57.5815 -57.4917 -57.4881 -57.3612
   -29.4675 -29.4648 -29.4630 -29.4538 -29.4521 -29.4399 -29.2628 -29.2596
   -29.2243 -25.6201 -25.5356 -25.5093 -25.5031 -25.4654 -25.3890 -25.3717
   -25.3462 -25.3116 -25.3037 -25.2893 -25.2643 -25.1821 -25.1742 -25.1644
    15.6280  16.1758  16.1980  16.2204  16.2539  16.4158  16.5494  16.5847
    16.9485  16.9934  17.0691  17.1375  17.2036  17.2801  17.7394  17.7912
    17.8771  18.0554  18.1221  18.1709  18.2155  18.2426  18.3101  18.5161
    18.6253  18.8084  19.0702  19.1375  19.2553  19.3503  19.4070  19.6431
    19.9302  20.1519  20.2516  20.5471  20.7347  20.8517  20.9712  21.0789
    21.4648  21.8917  22.0329  22.7474  22.8971  26.9172  27.1331  28.7933
    28.8569  28.9497  29.5098  32.0344

          k = 0.1897-0.3867 0.1766 ( 15469 PWs)   bands (ev):

   -63.7391 -63.7388 -63.5560 -57.5946 -57.5815 -57.4919 -57.4878 -57.3612
   -29.4675 -29.4652 -29.4629 -29.4539 -29.4524 -29.4392 -29.2628 -29.2596
   -29.2244 -25.6208 -25.5366 -25.5073 -25.5035 -25.4653 -25.3849 -25.3706
   -25.3495 -25.3124 -25.3049 -25.2875 -25.2681 -25.1815 -25.1742 -25.1628
    15.6775  16.0334  16.1276  16.3041  16.4266  16.4726  16.5015  16.6059
    16.7523  16.9518  16.9965  17.1589  17.2938  17.4951  17.5868  17.8383
    17.8705  17.9650  17.9961  18.1077  18.2459  18.3192  18.4016  18.5324
    18.6369  18.9041  18.9740  19.0358  19.1325  19.4107  19.6141  19.8705
    19.9696  20.0561  20.4669  20.5042  20.5901  20.7967  21.0034  21.1180
    21.1899  21.4575  21.8152  22.9899  24.0144  25.5995  27.6361  28.0777
    29.1853  29.4331  29.6780  31.1277

          k = 0.1042-0.4776-0.1766 ( 15467 PWs)   bands (ev):

   -63.7391 -63.7389 -63.5560 -57.5946 -57.5815 -57.4922 -57.4876 -57.3612
   -29.4676 -29.4655 -29.4627 -29.4540 -29.4528 -29.4384 -29.2628 -29.2596
   -29.2245 -25.6217 -25.5372 -25.5060 -25.5033 -25.4652 -25.3850 -25.3643
   -25.3445 -25.3244 -25.3083 -25.2845 -25.2691 -25.1801 -25.1764 -25.1599
    15.8129  15.8524  16.1187  16.3853  16.4341  16.4783  16.5390  16.6283
    16.6719  16.9557  17.0365  17.0757  17.4392  17.4667  17.5727  17.6319
    17.7585  17.9579  18.0168  18.2058  18.2201  18.3576  18.3804  18.6511
    18.6831  18.7824  18.8417  18.9692  19.4030  19.4927  19.8659  19.9423
    20.0557  20.1519  20.2658  20.4155  20.4978  20.8888  20.9459  20.9953
    21.0762  21.2227  21.4842  24.0771  24.2449  25.7678  26.0447  27.4319
    29.8991  30.0647  30.7669  30.9539

          k = 0.1327-0.4473-0.0589 ( 15467 PWs)   bands (ev):

   -63.7391 -63.7388 -63.5560 -57.5946 -57.5815 -57.4920 -57.4878 -57.3612
   -29.4674 -29.4654 -29.4628 -29.4539 -29.4525 -29.4390 -29.2628 -29.2596
   -29.2244 -25.6210 -25.5367 -25.5071 -25.5033 -25.4653 -25.3844 -25.3697
   -25.3498 -25.3130 -25.3058 -25.2870 -25.2688 -25.1813 -25.1745 -25.1622
    15.6937  16.0055  16.1220  16.3207  16.4446  16.4815  16.5052  16.6119
    16.7057  16.9599  16.9845  17.1890  17.2979  17.4657  17.5895  17.8154
    17.8788  17.9669  18.0064  18.0985  18.2222  18.3270  18.3977  18.5609
    18.6511  18.8862  18.9367  19.0355  19.1522  19.4508  19.6298  19.8831
    20.0106  20.0773  20.4529  20.4866  20.5861  20.7980  20.9539  21.0977
    21.1709  21.4570  21.6966  23.1369  24.2292  25.3983  27.6005  27.7890
    29.2614  29.6941  29.8224  30.9662

          k = 0.1612-0.2701 0.0589 ( 15452 PWs)   bands (ev):

   -63.7394 -63.7388 -63.5559 -57.6063 -57.5707 -57.4915 -57.4878 -57.3608
   -29.4658 -29.4641 -29.4635 -29.4538 -29.4519 -29.4389 -29.2629 -29.2613
   -29.2254 -25.6301 -25.5547 -25.5085 -25.4762 -25.4634 -25.3896 -25.3730
   -25.3471 -25.3107 -25.2908 -25.2770 -25.2714 -25.1841 -25.1715 -25.1706
    14.7491  15.9298  16.0251  16.0683  16.1117  16.1654  16.1843  16.2214
    16.4199  16.6147  16.7595  16.8092  16.9339  17.4612  17.5369  17.6438
    17.9640  18.0383  18.3784  18.4119  18.5483  18.6471  18.7502  18.8283
    18.8530  18.9776  19.1981  19.3022  19.5566  19.6414  19.7032  19.9290
    20.2538  20.3294  20.3451  20.5251  21.0316  21.0979  21.1686  21.3480
    21.4542  21.5367  21.8805  23.5417  24.0048  26.7416  27.0368  27.5842
    28.9531  29.5072  30.2391  31.8143

          k = 0.1897-0.2397 0.1766 ( 15457 PWs)   bands (ev):

   -63.7393 -63.7389 -63.5559 -57.6063 -57.5707 -57.4924 -57.4869 -57.3608
   -29.4658 -29.4645 -29.4636 -29.4543 -29.4522 -29.4373 -29.2629 -29.2612
   -29.2256 -25.6318 -25.5539 -25.5084 -25.4750 -25.4653 -25.3756 -25.3713
   -25.3501 -25.3157 -25.2981 -25.2830 -25.2693 -25.1821 -25.1744 -25.1647
    14.9302  15.5897  15.9271  16.0076  16.0756  16.2359  16.2708  16.4098
    16.4525  16.5242  16.5663  17.0419  17.0790  17.2192  17.5767  17.6998
    17.9439  18.1646  18.2429  18.4246  18.4434  18.5048  18.5948  18.9023
    18.9532  19.1271  19.3408  19.4016  19.4974  19.6380  19.7978  19.9611
    20.1735  20.2478  20.4163  20.7432  20.8407  20.9591  21.0200  21.2057
    21.3306  21.5261  22.6450  23.2312  25.1094  26.0486  26.1314  26.7887
    28.8919  30.4934  30.7021  31.3061

          k = 0.1042-0.3307-0.1766 ( 15459 PWs)   bands (ev):

   -63.7393 -63.7389 -63.5559 -57.6063 -57.5707 -57.4927 -57.4866 -57.3608
   -29.4660 -29.4646 -29.4637 -29.4544 -29.4524 -29.4365 -29.2629 -29.2612
   -29.2257 -25.6326 -25.5535 -25.5084 -25.4748 -25.4657 -25.3767 -25.3597
   -25.3472 -25.3289 -25.3006 -25.2828 -25.2684 -25.1802 -25.1767 -25.1622
    15.1307  15.3221  15.9088  16.0270  16.1318  16.1543  16.2204  16.3113
    16.6124  16.6670  16.7195  16.8210  17.0265  17.1436  17.6459  17.6899
    18.0106  18.1458  18.3649  18.4360  18.4499  18.5002  18.5769  18.6760
    18.9511  19.0475  19.3347  19.4968  19.6234  19.7313  19.8188  19.9095
    20.1865  20.2710  20.5419  20.6922  20.7944  20.9300  20.9615  21.1180
    21.2913  21.5309  22.4349  24.2046  25.0087  25.7589  25.8579  26.2133
    29.4054  29.8699  31.1817  31.6384

          k = 0.1327-0.3004-0.0589 ( 15450 PWs)   bands (ev):

   -63.7393 -63.7388 -63.5559 -57.6063 -57.5707 -57.4919 -57.4873 -57.3608
   -29.4657 -29.4644 -29.4636 -29.4540 -29.4521 -29.4381 -29.2629 -29.2612
   -29.2255 -25.6309 -25.5543 -25.5085 -25.4756 -25.4643 -25.3817 -25.3742
   -25.3487 -25.3117 -25.2922 -25.2831 -25.2697 -25.1833 -25.1728 -25.1677
    14.8232  15.7883  15.9599  15.9870  16.0631  16.2574  16.3146  16.3658
    16.4120  16.4633  16.5549  17.0093  17.1267  17.2748  17.5470  17.6843
    17.9725  18.0837  18.2577  18.4043  18.4795  18.5320  18.6668  18.9065
    19.0313  19.1677  19.1979  19.2943  19.5145  19.5876  19.7926  19.9230
    20.2056  20.2537  20.3371  20.7560  20.9330  21.0073  21.0788  21.2280
    21.3747  21.5183  22.5601  22.9946  24.6390  26.3135  26.8903  27.0934
    28.6755  30.3643  30.5218  31.0654

          k = 0.1612-0.1232 0.0589 ( 15474 PWs)   bands (ev):

   -63.7396 -63.7389 -63.5558 -57.6147 -57.5636 -57.4917 -57.4869 -57.3603
   -29.4654 -29.4646 -29.4607 -29.4542 -29.4526 -29.4360 -29.2635 -29.2627
   -29.2270 -25.6270 -25.5658 -25.5608 -25.4442 -25.4191 -25.3810 -25.3696
   -25.3521 -25.3209 -25.2974 -25.2744 -25.2634 -25.1854 -25.1749 -25.1684
    14.1130  15.5996  15.7487  15.7668  15.8070  15.9628  16.0950  16.1278
    16.1485  16.1747  16.2094  16.5955  16.6539  16.8079  17.2007  17.8462
    18.2167  18.2422  18.3339  18.4300  18.6595  18.7476  18.9561  19.2857
    19.5560  19.6268  19.6405  19.7069  19.9202  20.0140  20.2222  20.2873
    20.3994  20.5320  20.6589  20.7349  20.9631  21.0799  21.1688  21.2369
    21.3581  21.5352  21.6092  25.2507  25.3012  25.7590  26.5173  26.5538
    30.3155  30.3785  31.5701  31.7065

          k = 0.1897-0.0928 0.1766 ( 15475 PWs)   bands (ev):

   -63.7395 -63.7389 -63.5558 -57.6146 -57.5636 -57.4931 -57.4856 -57.3603
   -29.4659 -29.4647 -29.4610 -29.4545 -29.4520 -29.4355 -29.2636 -29.2626
   -29.2271 -25.6284 -25.5634 -25.5604 -25.4449 -25.4279 -25.3754 -25.3581
   -25.3537 -25.3266 -25.2922 -25.2856 -25.2598 -25.1832 -25.1758 -25.1690
    14.4483  15.0601  15.5944  15.6283  15.7822  15.8923  15.9041  16.0255
    16.1193  16.4331  16.5387  16.6405  16.9328  17.0514  17.5286  17.6769
    17.8965  17.9970  18.3271  18.3780  18.5459  18.5900  19.0309  19.2245
    19.6439  19.6943  19.7490  19.7779  19.8368  20.0125  20.1471  20.2086
    20.3438  20.3842  20.8582  20.9222  21.0621  21.1514  21.2413  21.3749
    21.5153  21.5901  22.5795  24.2685  24.3176  24.3880  27.7074  27.7397
    29.2077  29.2649  32.5299  33.0443

          k = 0.1042-0.1838-0.1766 ( 15477 PWs)   bands (ev):

   -63.7395 -63.7389 -63.5558 -57.6146 -57.5636 -57.4931 -57.4856 -57.3603
   -29.4659 -29.4647 -29.4609 -29.4545 -29.4520 -29.4355 -29.2636 -29.2626
   -29.2271 -25.6284 -25.5634 -25.5604 -25.4449 -25.4280 -25.3756 -25.3581
   -25.3537 -25.3264 -25.2921 -25.2857 -25.2598 -25.1833 -25.1758 -25.1690
    14.4486  15.0597  15.5943  15.6282  15.7822  15.8923  15.9042  16.0252
    16.1194  16.4332  16.5389  16.6408  16.9331  17.0517  17.5283  17.6775
    17.8965  17.9965  18.3269  18.3784  18.5450  18.5898  19.0312  19.2246
    19.6439  19.6939  19.7491  19.7783  19.8365  20.0128  20.1475  20.2084
    20.3443  20.3834  20.8580  20.9219  21.0622  21.1515  21.2414  21.3753
    21.5151  21.5906  22.5800  24.2676  24.3177  24.3880  27.7081  27.7370
    29.2076  29.2678  32.5290  33.0421

          k = 0.1327-0.1535-0.0589 ( 15473 PWs)   bands (ev):

   -63.7396 -63.7389 -63.5558 -57.6147 -57.5636 -57.4917 -57.4869 -57.3603
   -29.4654 -29.4646 -29.4607 -29.4542 -29.4527 -29.4360 -29.2635 -29.2627
   -29.2270 -25.6269 -25.5658 -25.5609 -25.4441 -25.4192 -25.3812 -25.3694
   -25.3521 -25.3208 -25.2974 -25.2744 -25.2634 -25.1854 -25.1749 -25.1684
    14.1131  15.5997  15.7484  15.7664  15.8066  15.9628  16.0953  16.1278
    16.1486  16.1746  16.2094  16.5958  16.6541  16.8080  17.2006  17.8468
    18.2167  18.2419  18.3336  18.4303  18.6592  18.7466  18.9558  19.2862
    19.5562  19.6269  19.6404  19.7069  19.9203  20.0135  20.2224  20.2875
    20.3995  20.5322  20.6590  20.7350  20.9631  21.0803  21.1684  21.2368
    21.3585  21.5348  21.6097  25.2505  25.3020  25.7585  26.5178  26.5519
    30.3157  30.3822  31.5694  31.7042

          k = 0.3082 0.0324 0.0589 ( 15464 PWs)   bands (ev):

   -63.7394 -63.7388 -63.5558 -57.6086 -57.5691 -57.4924 -57.4865 -57.3606
   -29.4660 -29.4638 -29.4621 -29.4530 -29.4520 -29.4366 -29.2638 -29.2604
   -29.2264 -25.5849 -25.5684 -25.5567 -25.4700 -25.4204 -25.3951 -25.3628
   -25.3529 -25.3355 -25.2863 -25.2829 -25.2778 -25.1825 -25.1763 -25.1659
    14.7207  15.7518  15.8503  15.9191  16.0477  16.0848  16.2803  16.3613
    16.4488  16.6008  16.6742  16.8041  16.8824  17.1795  17.3335  17.5497
    17.6525  18.0566  18.1352  18.3760  18.4960  18.5090  18.9426  19.0238
    19.0773  19.2407  19.3311  19.6964  19.7603  19.8970  20.1246  20.1367
    20.1844  20.3726  20.6027  20.6134  20.6747  20.8583  20.8847  21.0377
    21.1864  21.6338  22.1472  22.9691  24.8785  25.9763  27.1725  27.4450
    30.1891  30.6102  31.9808  32.1820

          k = 0.3367 0.0627 0.1766 ( 15469 PWs)   bands (ev):

   -63.7394 -63.7389 -63.5558 -57.6086 -57.5691 -57.4929 -57.4860 -57.3606
   -29.4659 -29.4641 -29.4625 -29.4530 -29.4521 -29.4358 -29.2638 -29.2604
   -29.2265 -25.5866 -25.5685 -25.5559 -25.4673 -25.4232 -25.3956 -25.3609
   -25.3506 -25.3226 -25.3055 -25.2855 -25.2737 -25.1821 -25.1774 -25.1627
    15.1029  15.2046  15.7331  15.9006  16.0003  16.2224  16.2786  16.3460
    16.4131  16.4677  16.8386  16.9071  17.2870  17.2907  17.3161  17.4369
    17.5444  17.7086  18.4161  18.4697  18.5162  18.5579  18.6195  18.6810
    19.0214  19.3301  19.3489  19.5923  19.8318  20.2074  20.2558  20.3257
    20.4602  20.4708  20.6045  20.6938  20.7047  20.7617  20.8819  20.9774
    21.0534  21.2727  21.7078  24.2218  24.4867  25.9340  26.1087  27.0549
    31.5350  31.6871  31.7649  32.3622

          k = 0.2512-0.0283-0.1766 ( 15452 PWs)   bands (ev):

   -63.7395 -63.7388 -63.5558 -57.6086 -57.5691 -57.4922 -57.4867 -57.3606
   -29.4661 -29.4636 -29.4619 -29.4530 -29.4521 -29.4368 -29.2638 -29.2604
   -29.2264 -25.5845 -25.5684 -25.5568 -25.4706 -25.4198 -25.3949 -25.3639
   -25.3535 -25.3361 -25.2845 -25.2820 -25.2777 -25.1827 -25.1761 -25.1667
    14.6758  15.8424  15.8890  15.9287  16.0252  16.1124  16.2644  16.3770
    16.4195  16.6229  16.7135  16.7373  16.8094  17.1363  17.2961  17.5524
    17.7447  18.0143  18.2166  18.3394  18.4964  18.5183  19.0067  19.0774
    19.1047  19.2048  19.3263  19.6261  19.7191  19.8907  20.0546  20.1023
    20.2046  20.3553  20.5981  20.6036  20.6772  20.8649  20.8926  21.0877
    21.1936  21.6302  22.3053  22.8082  24.7044  26.2019  27.3673  27.5661
    29.9708  30.3414  31.9574  32.1541

          k = 0.2797 0.0020-0.0589 ( 15464 PWs)   bands (ev):

   -63.7395 -63.7388 -63.5558 -57.6086 -57.5691 -57.4914 -57.4874 -57.3606
   -29.4663 -29.4632 -29.4614 -29.4533 -29.4518 -29.4376 -29.2638 -29.2604
   -29.2263 -25.5828 -25.5683 -25.5573 -25.4737 -25.4159 -25.3943 -25.3703
   -25.3558 -25.3357 -25.2874 -25.2803 -25.2678 -25.1833 -25.1755 -25.1699
    14.5373  15.8926  16.0713  16.1084  16.2138  16.2201  16.3129  16.3530
    16.4019  16.4269  16.4786  16.7332  16.7940  16.9332  17.0833  17.5510
    17.9599  18.0150  18.3998  18.4232  18.5940  18.7706  18.8236  18.8795
    19.2174  19.3557  19.3645  19.4138  19.5953  19.6365  19.8948  20.1184
    20.2375  20.3991  20.5472  20.6073  20.6933  20.7022  20.9792  21.0741
    21.6754  21.6902  21.8193  23.4559  23.6487  27.0740  28.5328  28.6106
    28.7224  28.8475  31.7197  31.9384

          k = 0.3082 0.1793 0.0589 ( 15460 PWs)   bands (ev):

   -63.7393 -63.7388 -63.5559 -57.6063 -57.5706 -57.4925 -57.4869 -57.3608
   -29.4664 -29.4659 -29.4630 -29.4536 -29.4522 -29.4370 -29.2645 -29.2595
   -29.2256 -25.6347 -25.5536 -25.5068 -25.4756 -25.4641 -25.3745 -25.3665
   -25.3514 -25.3189 -25.2992 -25.2826 -25.2705 -25.1828 -25.1741 -25.1635
    14.9761  15.5221  15.9216  16.0149  16.0891  16.2052  16.2578  16.3804
    16.4924  16.5564  16.6091  16.9925  17.0672  17.2102  17.5992  17.6983
    17.9523  18.1773  18.2529  18.4216  18.4486  18.4871  18.5883  18.8514
    18.9559  19.1053  19.3733  19.4303  19.5273  19.6738  19.8046  19.9734
    20.1567  20.2548  20.4543  20.6990  20.8257  20.9529  21.0222  21.1791
    21.3125  21.5204  22.5860  23.4697  25.2858  25.8714  25.9670  26.6702
    28.9873  30.3179  30.7797  31.6115

          k = 0.3367 0.2096 0.1766 ( 15465 PWs)   bands (ev):

   -63.7393 -63.7388 -63.5559 -57.6063 -57.5706 -57.4926 -57.4867 -57.3608
   -29.4664 -29.4658 -29.4632 -29.4531 -29.4528 -29.4366 -29.2645 -29.2595
   -29.2257 -25.6351 -25.5534 -25.5068 -25.4755 -25.4644 -25.3751 -25.3606
   -25.3497 -25.3253 -25.3008 -25.2826 -25.2701 -25.1829 -25.1742 -25.1621
    15.0773  15.3869  15.9126  16.0254  16.1247  16.1571  16.2320  16.3279
    16.5775  16.6282  16.6906  16.8771  17.0381  17.1659  17.6342  17.6947
    17.9892  18.1572  18.3304  18.4382  18.4503  18.4806  18.5749  18.7340
    18.9557  19.0634  19.3535  19.4891  19.5939  19.7205  19.8179  19.9461
    20.1623  20.2762  20.5213  20.6664  20.8022  20.9378  21.0022  21.1232
    21.2926  21.5219  22.4790  23.9601  25.2739  25.6427  25.8680  26.3876
    29.2467  29.9979  31.0240  31.7777

          k = 0.2512 0.1186-0.1766 ( 15465 PWs)   bands (ev):

   -63.7394 -63.7388 -63.5559 -57.6063 -57.5706 -57.4918 -57.4876 -57.3608
   -29.4664 -29.4659 -29.4623 -29.4531 -29.4520 -29.4384 -29.2646 -29.2595
   -29.2255 -25.6333 -25.5543 -25.5068 -25.4763 -25.4627 -25.3832 -25.3719
   -25.3499 -25.3133 -25.2900 -25.2818 -25.2708 -25.1822 -25.1735 -25.1686
    14.7990  15.8484  15.9599  15.9970  16.0693  16.2431  16.2742  16.3423
    16.4322  16.4569  16.6064  16.9699  17.0905  17.3327  17.5492  17.6725
    17.9688  18.0815  18.2551  18.3984  18.5009  18.5372  18.7138  18.8737
    19.0354  19.1321  19.1822  19.2981  19.5192  19.6040  19.7691  19.9337
    20.2014  20.2696  20.3349  20.7077  20.9653  21.0325  21.1365  21.2264
    21.3836  21.5069  22.3849  23.1368  24.5025  26.3938  27.1073  27.1451
    28.6867  30.1986  30.3695  31.2184

          k = 0.2797 0.1489-0.0589 ( 15456 PWs)   bands (ev):

   -63.7394 -63.7388 -63.5559 -57.6064 -57.5706 -57.4915 -57.4878 -57.3608
   -29.4665 -29.4658 -29.4620 -29.4533 -29.4516 -29.4388 -29.2646 -29.2595
   -29.2254 -25.6329 -25.5545 -25.5068 -25.4766 -25.4621 -25.3874 -25.3711
   -25.3491 -25.3132 -25.2895 -25.2794 -25.2704 -25.1821 -25.1732 -25.1704
    14.7618  15.9271  15.9817  16.0427  16.0959  16.1948  16.2085  16.2567
    16.4260  16.5542  16.7118  16.8659  16.9921  17.4310  17.5449  17.6520
    17.9522  18.0590  18.3279  18.4025  18.5387  18.5986  18.7797  18.8073
    18.9171  19.0371  19.1913  19.3124  19.5354  19.6372  19.7208  19.9389
    20.2283  20.3023  20.3423  20.5911  21.0131  21.0769  21.1823  21.3102
    21.4137  21.5072  22.0401  23.4139  24.1864  26.6110  27.0838  27.4791
    28.8358  29.7541  30.2482  31.5991

          k = 0.3082 0.3262 0.0589 ( 15466 PWs)   bands (ev):

   -63.7391 -63.7388 -63.5560 -57.6002 -57.5752 -57.4921 -57.4881 -57.3613
   -29.4704 -29.4658 -29.4648 -29.4545 -29.4537 -29.4386 -29.2645 -29.2591
   -29.2239 -25.6687 -25.5450 -25.5210 -25.4930 -25.4401 -25.3750 -25.3655
   -25.3389 -25.3220 -25.2861 -25.2833 -25.2687 -25.1799 -25.1741 -25.1585
    15.3843  15.4726  16.1200  16.1419  16.1739  16.2520  16.3356  16.3726
    16.5553  16.6025  17.0443  17.2517  17.3017  17.4066  17.9511  18.1155
    18.2258  18.3092  18.3524  18.4072  18.4411  18.4688  18.5075  18.5981
    18.7167  18.8160  18.8656  18.9436  19.0541  19.3668  19.8765  20.0175
    20.1162  20.3123  20.4485  20.5026  20.7566  20.8309  21.0178  21.1098
    21.3657  21.4200  23.8180  23.9907  24.4805  25.2335  25.2575  26.0030
    28.6147  28.6891  29.2510  29.9305

          k = 0.3367 0.3565 0.1766 ( 15473 PWs)   bands (ev):

   -63.7391 -63.7388 -63.5560 -57.6002 -57.5752 -57.4920 -57.4882 -57.3613
   -29.4702 -29.4659 -29.4649 -29.4540 -29.4537 -29.4392 -29.2645 -29.2591
   -29.2238 -25.6683 -25.5453 -25.5209 -25.4925 -25.4407 -25.3801 -25.3662
   -25.3387 -25.3140 -25.2872 -25.2833 -25.2690 -25.1796 -25.1741 -25.1599
    15.3635  15.5157  16.0825  16.1357  16.1702  16.2397  16.2829  16.3218
    16.6451  16.6885  16.9846  17.2878  17.3434  17.4502  17.8065  18.1104
    18.2065  18.3340  18.3520  18.4190  18.4747  18.4874  18.5392  18.6369
    18.7621  18.7820  18.8339  18.9368  18.9715  19.4632  19.7746  19.9246
    20.0029  20.3516  20.4711  20.5302  20.8732  20.9494  21.0373  21.1297
    21.3622  21.4320  23.8622  23.9121  24.0300  25.1585  25.1741  26.6123
    28.7402  28.8188  29.0468  30.2495

          k = 0.2512 0.2655-0.1766 ( 15453 PWs)   bands (ev):

   -63.7391 -63.7388 -63.5560 -57.6002 -57.5752 -57.4914 -57.4889 -57.3613
   -29.4693 -29.4664 -29.4650 -29.4531 -29.4524 -29.4417 -29.2645 -29.2591
   -29.2236 -25.6669 -25.5462 -25.5204 -25.4898 -25.4447 -25.3977 -25.3635
   -25.3351 -25.2955 -25.2905 -25.2788 -25.2714 -25.1783 -25.1755 -25.1655
    15.3249  15.7153  15.8810  16.1119  16.1349  16.1594  16.1847  16.2304
    16.8512  17.0061  17.0737  17.2155  17.3039  17.4550  17.8166  18.0197
    18.1987  18.3249  18.4134  18.4179  18.4629  18.5429  18.5952  18.6262
    18.6775  18.7363  18.7931  19.0333  19.1114  19.3043  19.3391  19.5443
    19.9698  20.5599  20.7929  20.9212  21.0253  21.0774  21.2498  21.2937
    21.4433  21.4937  22.1130  24.2401  24.3473  24.6583  24.7032  28.2047
    28.8763  29.7270  29.7708  30.7995

          k = 0.2797 0.2959-0.0589 ( 15453 PWs)   bands (ev):

   -63.7391 -63.7388 -63.5560 -57.6002 -57.5752 -57.4915 -57.4887 -57.3613
   -29.4695 -29.4663 -29.4649 -29.4535 -29.4528 -29.4410 -29.2645 -29.2591
   -29.2237 -25.6672 -25.5460 -25.5205 -25.4906 -25.4434 -25.3947 -25.3640
   -25.3362 -25.2973 -25.2894 -25.2824 -25.2704 -25.1786 -25.1749 -25.1642
    15.3303  15.6528  15.9460  16.1152  16.1465  16.1743  16.2042  16.2435
    16.8529  16.9072  16.9784  17.2610  17.3500  17.5176  17.7143  18.0763
    18.1620  18.3432  18.3849  18.4062  18.4862  18.5776  18.6094  18.6432
    18.6699  18.7320  18.7783  18.9729  19.0672  19.3842  19.4789  19.6507
    19.9044  20.5256  20.7373  20.7689  20.9440  21.0624  21.2065  21.2405
    21.4187  21.4700  22.5828  24.1045  24.2299  24.8228  24.8522  27.9607
    28.7461  29.3896  29.4341  31.1042

          k = 0.3082 0.4731 0.0589 ( 15471 PWs)   bands (ev):

   -63.7389 -63.7388 -63.5561 -57.5916 -57.5825 -57.4917 -57.4893 -57.3617
   -29.4730 -29.4663 -29.4656 -29.4556 -29.4539 -29.4414 -29.2637 -29.2594
   -29.2225 -25.6803 -25.5598 -25.5308 -25.5139 -25.3993 -25.3891 -25.3600
   -25.3275 -25.3102 -25.2951 -25.2780 -25.2675 -25.1767 -25.1760 -25.1565
    15.6949  15.7191  15.8313  15.8638  16.2438  16.3061  16.6125  16.8279
    16.9011  17.1062  17.2741  17.3203  17.4277  17.6452  17.7316  17.8960
    18.1040  18.1406  18.2680  18.3179  18.4164  18.4310  18.4827  18.5380
    18.5858  18.7282  18.9106  18.9681  19.3990  19.4584  19.7844  19.8516
    19.9323  20.5537  20.6211  20.6825  20.8342  20.8982  20.9789  21.0181
    21.2229  21.2639  22.3353  23.6623  23.7932  25.3075  25.5454  25.7765
    28.5915  28.6585  29.1259  29.2587

          k = 0.3367 0.5034 0.1766 ( 15474 PWs)   bands (ev):

   -63.7389 -63.7388 -63.5561 -57.5916 -57.5825 -57.4916 -57.4894 -57.3617
   -29.4725 -29.4667 -29.4658 -29.4553 -29.4532 -29.4423 -29.2637 -29.2596
   -29.2224 -25.6799 -25.5597 -25.5316 -25.5127 -25.4043 -25.3894 -25.3618
   -25.3222 -25.3056 -25.2953 -25.2787 -25.2689 -25.1771 -25.1751 -25.1583
    15.6295  15.8414  15.8975  15.9671  15.9822  16.3016  16.5431  16.7005
    17.0213  17.1874  17.2371  17.4721  17.5671  17.6531  17.7322  17.8381
    17.9733  18.0987  18.1320  18.1935  18.3086  18.4223  18.5505  18.6030
    18.7476  19.0230  19.0707  19.1541  19.2111  19.3034  19.3989  19.6073
    19.9463  20.5809  20.6277  20.7812  20.8708  21.0486  21.1591  21.1993
    21.2682  21.3995  22.3031  22.9494  24.0365  24.6188  25.3546  26.6113
    28.6206  29.1521  29.2333  30.1276

          k = 0.2512 0.4125-0.1766 ( 15462 PWs)   bands (ev):

   -63.7389 -63.7388 -63.5561 -57.5916 -57.5825 -57.4914 -57.4896 -57.3617
   -29.4719 -29.4672 -29.4660 -29.4548 -29.4527 -29.4434 -29.2635 -29.2597
   -29.2223 -25.6795 -25.5597 -25.5325 -25.5110 -25.4125 -25.3902 -25.3561
   -25.3191 -25.3056 -25.2969 -25.2794 -25.2653 -25.1792 -25.1738 -25.1598
    15.7007  15.7261  15.9754  16.0059  16.0941  16.2467  16.2971  16.6197
    17.1350  17.1677  17.2754  17.4175  17.6193  17.6664  17.8494  17.8964
    17.9547  18.1290  18.2308  18.2835  18.3547  18.4029  18.5061  18.5826
    18.7010  18.7700  18.9475  19.0235  19.2198  19.3963  19.4627  19.5398
    19.7042  20.5925  20.7780  20.8423  21.0718  21.1550  21.2068  21.2727
    21.3281  22.2649  22.3098  22.4387  22.5369  25.2470  25.3498  26.6908
    28.9061  29.0549  30.2666  30.4483

          k = 0.2797 0.4428-0.0589 ( 15467 PWs)   bands (ev):

   -63.7389 -63.7388 -63.5561 -57.5916 -57.5825 -57.4915 -57.4895 -57.3617
   -29.4724 -29.4668 -29.4658 -29.4551 -29.4534 -29.4424 -29.2636 -29.2596
   -29.2224 -25.6798 -25.5597 -25.5318 -25.5124 -25.4056 -25.3900 -25.3609
   -25.3216 -25.3049 -25.2955 -25.2789 -25.2688 -25.1774 -25.1748 -25.1586
    15.6305  15.8513  15.9079  15.9568  16.0055  16.2529  16.5597  16.6488
    17.0308  17.2016  17.3078  17.4553  17.5112  17.6642  17.7195  17.9048
    18.0014  18.0837  18.1281  18.1607  18.2875  18.4502  18.5273  18.6172
    18.7933  18.9585  19.0944  19.1363  19.1874  19.3244  19.4043  19.5813
    19.8712  20.5803  20.6925  20.7777  20.8821  21.0796  21.1863  21.2130
    21.2764  21.4920  22.2958  22.8453  23.7973  24.7408  25.3648  26.6513
    28.5961  29.3579  29.3776  30.2261

          k = 0.3082-0.4084 0.0589 ( 15452 PWs)   bands (ev):

   -63.7389 -63.7388 -63.5561 -57.5915 -57.5826 -57.4914 -57.4896 -57.3617
   -29.4720 -29.4669 -29.4656 -29.4555 -29.4524 -29.4434 -29.2626 -29.2606
   -29.2223 -25.6786 -25.5604 -25.5332 -25.5102 -25.4113 -25.3909 -25.3578
   -25.3206 -25.3067 -25.2957 -25.2784 -25.2644 -25.1774 -25.1757 -25.1598
    15.6820  15.7516  15.9482  16.0399  16.0866  16.2017  16.3490  16.6233
    17.1235  17.1844  17.2743  17.4168  17.6006  17.6693  17.8461  17.8869
    17.9839  18.1167  18.2121  18.2641  18.3338  18.4182  18.5011  18.6420
    18.6652  18.8101  18.9176  19.0578  19.1975  19.3996  19.4666  19.5520
    19.6950  20.5900  20.7569  20.8650  21.0443  21.1566  21.2038  21.2717
    21.3245  22.1351  22.2945  22.4582  22.7088  25.2040  25.3591  26.6996
    28.7882  29.2153  30.1176  30.5366

          k = 0.3367-0.3781 0.1766 ( 15477 PWs)   bands (ev):

   -63.7389 -63.7388 -63.5561 -57.5915 -57.5826 -57.4916 -57.4894 -57.3617
   -29.4721 -29.4671 -29.4655 -29.4555 -29.4535 -29.4421 -29.2625 -29.2607
   -29.2224 -25.6791 -25.5604 -25.5321 -25.5121 -25.4025 -25.3903 -25.3630
   -25.3243 -25.3062 -25.2936 -25.2776 -25.2696 -25.1789 -25.1733 -25.1579
    15.6332  15.8338  15.8669  15.9481  16.0154  16.3551  16.5186  16.7569
    17.0160  17.1562  17.1869  17.4654  17.5997  17.6749  17.7489  17.7793
    17.9508  18.1048  18.1394  18.2333  18.3366  18.3982  18.5422  18.6222
    18.7026  18.9999  19.0534  19.1483  19.2304  19.3082  19.4359  19.6474
    20.0168  20.5188  20.6329  20.7740  20.8673  21.0153  21.1210  21.1751
    21.2610  21.3297  22.3094  23.0571  24.2646  24.5079  25.3378  26.5544
    28.6602  28.9731  29.1127  29.9632

          k = 0.2512-0.4690-0.1766 ( 15478 PWs)   bands (ev):

   -63.7389 -63.7388 -63.5561 -57.5915 -57.5826 -57.4917 -57.4893 -57.3617
   -29.4722 -29.4671 -29.4655 -29.4554 -29.4542 -29.4415 -29.2625 -29.2607
   -29.2225 -25.6793 -25.5605 -25.5316 -25.5129 -25.3996 -25.3898 -25.3617
   -25.3270 -25.3097 -25.2933 -25.2772 -25.2692 -25.1791 -25.1735 -25.1565
    15.6768  15.7444  15.8300  15.8727  16.1998  16.3524  16.5755  16.8670
    16.8977  17.0904  17.2441  17.3480  17.4634  17.6458  17.7312  17.8928
    18.1019  18.1369  18.1956  18.2873  18.4092  18.4534  18.5261  18.5515
    18.5947  18.7623  18.8727  19.0124  19.3817  19.4421  19.7335  19.8090
    20.0082  20.4966  20.6232  20.7481  20.8224  20.8966  20.9859  21.0383
    21.2240  21.2669  22.3317  23.5347  23.9246  25.2999  25.3139  25.9897
    28.5949  28.7156  29.0145  29.3793

          k = 0.2797-0.4387-0.0589 ( 15470 PWs)   bands (ev):

   -63.7389 -63.7388 -63.5561 -57.5915 -57.5826 -57.4915 -57.4895 -57.3617
   -29.4720 -29.4670 -29.4656 -29.4555 -29.4530 -29.4427 -29.2626 -29.2606
   -29.2224 -25.6788 -25.5604 -25.5327 -25.5111 -25.4067 -25.3906 -25.3613
   -25.3227 -25.3046 -25.2946 -25.2781 -25.2678 -25.1784 -25.1739 -25.1591
    15.6343  15.8638  15.8824  15.9830  16.0389  16.2056  16.5543  16.6169
    17.0443  17.2188  17.3633  17.4154  17.4786  17.6831  17.7228  17.9584
    18.0196  18.0722  18.1192  18.1485  18.2775  18.4650  18.5092  18.6396
    18.8308  18.8824  19.0325  19.1329  19.2005  19.3129  19.4534  19.5736
    19.7951  20.5695  20.7584  20.7803  20.8976  21.1059  21.1981  21.2282
    21.2869  21.5992  22.2875  22.7486  23.5634  24.8555  25.3685  26.6820
    28.5796  29.5097  29.6131  30.0863

          k = 0.3082-0.2615 0.0589 ( 15456 PWs)   bands (ev):

   -63.7391 -63.7388 -63.5560 -57.6001 -57.5753 -57.4914 -57.4888 -57.3613
   -29.4683 -29.4663 -29.4652 -29.4542 -29.4524 -29.4415 -29.2619 -29.2618
   -29.2236 -25.6649 -25.5466 -25.5219 -25.4892 -25.4446 -25.3978 -25.3661
   -25.3348 -25.2969 -25.2889 -25.2803 -25.2692 -25.1810 -25.1731 -25.1647
    15.3289  15.6849  15.9155  16.1153  16.1428  16.1669  16.1951  16.2387
    16.8540  16.9571  17.0246  17.2420  17.3312  17.4816  17.7689  18.0520
    18.1777  18.3332  18.3968  18.4097  18.4776  18.5609  18.6181  18.6269
    18.6574  18.7333  18.7826  19.0009  19.0872  19.3407  19.4059  19.5918
    19.9365  20.5432  20.7718  20.8753  20.9515  21.0647  21.2315  21.2650
    21.4321  21.4814  22.3429  24.1678  24.2837  24.7395  24.7770  28.1240
    28.7955  29.5489  29.5918  31.0327

          k = 0.3367-0.2312 0.1766 ( 15466 PWs)   bands (ev):

   -63.7391 -63.7388 -63.5560 -57.6001 -57.5753 -57.4921 -57.4882 -57.3613
   -29.4692 -29.4661 -29.4648 -29.4550 -29.4537 -29.4390 -29.2619 -29.2617
   -29.2239 -25.6664 -25.5457 -25.5224 -25.4917 -25.4412 -25.3793 -25.3673
   -25.3387 -25.3176 -25.2860 -25.2838 -25.2672 -25.1791 -25.1745 -25.1591
    15.3746  15.4947  16.1060  16.1411  16.1748  16.2495  16.3094  16.3478
    16.5993  16.6444  17.0119  17.2795  17.3204  17.4238  17.8781  18.1103
    18.2220  18.3277  18.3479  18.4136  18.4609  18.4698  18.5241  18.6177
    18.7333  18.7973  18.8461  18.9537  18.9920  19.4172  19.8224  19.9798
    20.0627  20.3311  20.4477  20.5071  20.8171  20.8916  21.0270  21.1179
    21.3627  21.4263  23.8350  24.0041  24.1932  25.1999  25.2210  26.3106
    28.6657  28.7398  29.1501  30.0946

          k = 0.2512-0.3221-0.1766 ( 15468 PWs)   bands (ev):

   -63.7391 -63.7388 -63.5560 -57.6001 -57.5753 -57.4921 -57.4882 -57.3613
   -29.4692 -29.4661 -29.4648 -29.4549 -29.4537 -29.4390 -29.2619 -29.2617
   -29.2239 -25.6664 -25.5457 -25.5224 -25.4917 -25.4412 -25.3789 -25.3675
   -25.3390 -25.3175 -25.2859 -25.2838 -25.2672 -25.1791 -25.1745 -25.1592
    15.3750  15.4942  16.1056  16.1414  16.1751  16.2500  16.3089  16.3473
    16.5995  16.6445  17.0122  17.2795  17.3202  17.4239  17.8785  18.1101
    18.2223  18.3268  18.3477  18.4140  18.4618  18.4693  18.5241  18.6174
    18.7330  18.7973  18.8460  18.9533  18.9925  19.4169  19.8219  19.9804
    20.0629  20.3310  20.4480  20.5072  20.8171  20.8922  21.0270  21.1175
    21.3623  21.4265  23.8350  24.0040  24.1941  25.2005  25.2202  26.3095
    28.6658  28.7406  29.1483  30.0968

          k = 0.2797-0.2918-0.0589 ( 15459 PWs)   bands (ev):

   -63.7391 -63.7388 -63.5560 -57.6001 -57.5753 -57.4914 -57.4888 -57.3613
   -29.4683 -29.4663 -29.4652 -29.4542 -29.4524 -29.4415 -29.2619 -29.2618
   -29.2236 -25.6649 -25.5466 -25.5219 -25.4892 -25.4446 -25.3977 -25.3662
   -25.3349 -25.2970 -25.2890 -25.2802 -25.2692 -25.1809 -25.1731 -25.1647
    15.3291  15.6846  15.9154  16.1156  16.1430  16.1668  16.1950  16.2385
    16.8539  16.9571  17.0246  17.2422  17.3315  17.4817  17.7684  18.0525
    18.1775  18.3333  18.3963  18.4094  18.4777  18.5606  18.6180  18.6277
    18.6579  18.7330  18.7826  19.0001  19.0867  19.3400  19.4067  19.5923
    19.9366  20.5430  20.7717  20.8751  20.9518  21.0649  21.2322  21.2646
    21.4321  21.4811  22.3435  24.1677  24.2836  24.7400  24.7764  28.1243
    28.7935  29.5487  29.5938  31.0325

          k = 0.3082-0.1146 0.0589 ( 15467 PWs)   bands (ev):

   -63.7394 -63.7388 -63.5559 -57.6063 -57.5707 -57.4919 -57.4874 -57.3608
   -29.4662 -29.4644 -29.4633 -29.4538 -29.4522 -29.4381 -29.2628 -29.2613
   -29.2255 -25.6311 -25.5545 -25.5087 -25.4756 -25.4642 -25.3818 -25.3740
   -25.3490 -25.3126 -25.2919 -25.2822 -25.2698 -25.1835 -25.1725 -25.1675
    14.8258  15.7894  15.9621  15.9885  16.0647  16.2576  16.3137  16.3661
    16.4112  16.4640  16.5589  17.0104  17.1286  17.2760  17.5550  17.6819
    17.9704  18.0812  18.2524  18.3996  18.4761  18.5212  18.6782  18.9006
    19.0343  19.1734  19.2072  19.3012  19.5157  19.5928  19.7886  19.9225
    20.2031  20.2502  20.3380  20.7540  20.9336  21.0069  21.0786  21.2261
    21.3738  21.5109  22.5690  23.0124  24.6635  26.2894  26.9001  27.0941
    28.6706  30.3625  30.5373  31.0353

          k = 0.3367-0.0842 0.1766 ( 15466 PWs)   bands (ev):

   -63.7393 -63.7389 -63.5559 -57.6063 -57.5707 -57.4927 -57.4866 -57.3608
   -29.4662 -29.4651 -29.4633 -29.4543 -29.4524 -29.4366 -29.2628 -29.2612
   -29.2257 -25.6328 -25.5536 -25.5087 -25.4748 -25.4656 -25.3766 -25.3593
   -25.3475 -25.3296 -25.3006 -25.2826 -25.2685 -25.1806 -25.1763 -25.1618
    15.1323  15.3242  15.9114  16.0303  16.1336  16.1550  16.2209  16.3120
    16.6118  16.6675  16.7187  16.8217  17.0273  17.1433  17.6490  17.6914
    18.0071  18.1412  18.3618  18.4444  18.4490  18.4920  18.5762  18.6768
    18.9515  19.0511  19.3406  19.5008  19.6253  19.7357  19.8239  19.9133
    20.1801  20.2661  20.5427  20.6902  20.7948  20.9308  20.9609  21.1147
    21.2887  21.5231  22.4479  24.2133  25.0193  25.7840  25.8373  26.2349
    29.3788  29.8392  31.1716  31.6249

          k = 0.2512-0.1752-0.1766 ( 15459 PWs)   bands (ev):

   -63.7393 -63.7388 -63.5559 -57.6063 -57.5707 -57.4923 -57.4870 -57.3608
   -29.4662 -29.4648 -29.4632 -29.4540 -29.4523 -29.4373 -29.2628 -29.2612
   -29.2256 -25.6320 -25.5540 -25.5087 -25.4749 -25.4652 -25.3755 -25.3712
   -25.3505 -25.3161 -25.2980 -25.2824 -25.2694 -25.1823 -25.1742 -25.1644
    14.9332  15.5903  15.9295  16.0090  16.0767  16.2370  16.2706  16.4120
    16.4534  16.5242  16.5659  17.0428  17.0808  17.2205  17.5840  17.6974
    17.9421  18.1615  18.2383  18.4160  18.4462  18.4939  18.6050  18.9042
    18.9498  19.1322  19.3481  19.4046  19.5028  19.6430  19.8032  19.9577
    20.1706  20.2403  20.4183  20.7415  20.8400  20.9595  21.0185  21.2044
    21.3289  21.5191  22.6605  23.2422  25.1323  26.0265  26.1388  26.8067
    28.8714  30.4667  30.6885  31.3249

          k = 0.2797-0.1449-0.0589 ( 15460 PWs)   bands (ev):

   -63.7394 -63.7388 -63.5559 -57.6063 -57.5707 -57.4914 -57.4879 -57.3608
   -29.4663 -29.4639 -29.4633 -29.4534 -29.4521 -29.4389 -29.2628 -29.2613
   -29.2254 -25.6302 -25.5548 -25.5087 -25.4761 -25.4634 -25.3897 -25.3728
   -25.3475 -25.3116 -25.2904 -25.2765 -25.2710 -25.1843 -25.1714 -25.1705
    14.7523  15.9310  16.0256  16.0691  16.1120  16.1660  16.1842  16.2224
    16.4200  16.6146  16.7638  16.8097  16.9391  17.4619  17.5467  17.6423
    17.9568  18.0311  18.3782  18.4105  18.5452  18.6401  18.7452  18.8341
    18.8546  18.9845  19.2033  19.3103  19.5518  19.6435  19.7007  19.9316
    20.2490  20.3294  20.3470  20.5254  21.0283  21.0982  21.1683  21.3483
    21.4519  21.5345  21.8877  23.5628  24.0263  26.7170  27.0167  27.5928
    28.9723  29.5279  30.2291  31.7883

          k = 0.4552 0.0410 0.0589 ( 15467 PWs)   bands (ev):

   -63.7393 -63.7388 -63.5559 -57.5958 -57.5810 -57.4922 -57.4871 -57.3610
   -29.4663 -29.4652 -29.4610 -29.4528 -29.4519 -29.4376 -29.2630 -29.2588
   -29.2254 -25.5619 -25.5393 -25.5294 -25.5037 -25.4408 -25.4273 -25.3662
   -25.3547 -25.3280 -25.3027 -25.2915 -25.2686 -25.1840 -25.1747 -25.1617
    15.7000  15.9956  16.2675  16.3595  16.4605  16.6018  16.7728  16.9559
    16.9720  17.0404  17.0444  17.1024  17.1296  17.1837  17.3697  17.3811
    17.4721  17.6334  17.6996  17.8244  18.0143  18.2048  18.4221  18.9102
    19.0042  19.1198  19.2334  19.2452  19.3497  19.6709  19.7848  19.8935
    19.9236  20.0137  20.1150  20.1348  20.2559  20.4729  20.5792  20.9551
    21.1058  21.5828  21.6567  23.5393  24.6553  25.1634  27.0257  29.1843
    29.9024  31.5501  31.8094  32.3048

          k = 0.4837 0.0713 0.1766 ( 15477 PWs)   bands (ev):

   -63.7393 -63.7388 -63.5559 -57.5958 -57.5810 -57.4922 -57.4870 -57.3610
   -29.4664 -29.4652 -29.4611 -29.4528 -29.4519 -29.4375 -29.2631 -29.2588
   -29.2254 -25.5626 -25.5393 -25.5295 -25.5029 -25.4406 -25.4274 -25.3655
   -25.3544 -25.3264 -25.3059 -25.2918 -25.2685 -25.1839 -25.1750 -25.1609
    15.8017  15.9565  16.1385  16.3451  16.4397  16.6878  16.8219  16.9459
    16.9894  17.0009  17.0448  17.0622  17.0893  17.1850  17.4147  17.4707
    17.5069  17.6340  17.6621  17.7429  18.0162  18.2267  18.3562  18.9187
    18.9894  19.1921  19.2166  19.2361  19.4703  19.6608  19.7853  19.9100
    19.9389  20.0232  20.1050  20.1098  20.1510  20.5424  20.6710  20.9595
    21.0098  21.3600  21.6841  23.8556  24.6698  25.2477  26.4773  29.0737
    30.4729  31.6936  31.8195  32.4176

          k = 0.3982-0.0197-0.1766 ( 15478 PWs)   bands (ev):

   -63.7393 -63.7388 -63.5559 -57.5958 -57.5810 -57.4919 -57.4874 -57.3610
   -29.4666 -29.4647 -29.4609 -29.4525 -29.4518 -29.4384 -29.2630 -29.2588
   -29.2253 -25.5604 -25.5379 -25.5294 -25.5069 -25.4414 -25.4272 -25.3689
   -25.3557 -25.3280 -25.3001 -25.2904 -25.2656 -25.1842 -25.1739 -25.1645
    15.5129  16.1961  16.3551  16.5056  16.5597  16.5707  16.6785  16.8220
    16.8609  16.9705  17.0034  17.0781  17.1272  17.2059  17.3286  17.3565
    17.5573  17.6871  17.8401  17.9965  18.0019  18.1298  18.4799  18.7693
    18.9364  19.0469  19.2215  19.3076  19.3389  19.6728  19.7764  19.8083
    19.8683  19.9908  20.0443  20.0791  20.1671  20.4976  20.6197  21.1120
    21.3878  21.6509  22.1779  22.7976  23.6982  26.1396  28.3172  28.4772
    29.6995  31.0661  31.2348  31.7750

          k = 0.4267 0.0106-0.0589 ( 15458 PWs)   bands (ev):

   -63.7393 -63.7388 -63.5559 -57.5958 -57.5810 -57.4918 -57.4875 -57.3610
   -29.4666 -29.4646 -29.4609 -29.4525 -29.4518 -29.4385 -29.2630 -29.2588
   -29.2253 -25.5599 -25.5371 -25.5294 -25.5084 -25.4416 -25.4272 -25.3698
   -25.3560 -25.3269 -25.3007 -25.2901 -25.2642 -25.1843 -25.1738 -25.1653
    15.4732  16.3074  16.3412  16.5248  16.5858  16.6149  16.6758  16.7410
    16.7959  16.9576  16.9621  17.0610  17.1226  17.2241  17.2851  17.3221
    17.6842  17.7971  17.8792  17.9920  18.0155  18.0947  18.3426  18.8179
    18.9497  19.0579  19.1693  19.2778  19.4021  19.6328  19.7236  19.8183
    19.8858  19.9817  20.0284  20.0566  20.1153  20.4981  20.7152  21.0225
    21.6531  21.6746  22.2754  22.6802  23.3458  26.5906  27.8643  28.8114
    29.9865  30.8457  30.9662  31.6127

          k = 0.4552 0.1879 0.0589 ( 15471 PWs)   bands (ev):

   -63.7392 -63.7388 -63.5560 -57.5947 -57.5813 -57.4921 -57.4878 -57.3612
   -29.4685 -29.4656 -29.4624 -29.4535 -29.4530 -29.4384 -29.2634 -29.2589
   -29.2245 -25.6231 -25.5373 -25.5062 -25.5027 -25.4646 -25.3842 -25.3649
   -25.3470 -25.3216 -25.3077 -25.2866 -25.2682 -25.1820 -25.1745 -25.1598
    15.7746  15.9007  16.1234  16.3698  16.4388  16.4866  16.5624  16.6026
    16.6606  16.9534  17.0098  17.1454  17.3693  17.4696  17.5620  17.6973
    17.7875  17.9608  18.0224  18.1823  18.2252  18.3275  18.3973  18.6484
    18.6825  18.8045  18.8486  18.9933  19.3350  19.5365  19.7474  19.9250
    20.0819  20.1962  20.3035  20.4215  20.5240  20.7941  20.9039  21.0496
    21.1631  21.2645  21.4734  23.7718  24.5924  25.2694  26.6265  27.4479
    29.6367  30.3014  30.4353  30.8794

          k = 0.4837 0.2182 0.1766 ( 15461 PWs)   bands (ev):

   -63.7392 -63.7388 -63.5560 -57.5947 -57.5813 -57.4920 -57.4878 -57.3612
   -29.4684 -29.4658 -29.4623 -29.4533 -29.4529 -29.4387 -29.2634 -29.2589
   -29.2245 -25.6229 -25.5372 -25.5065 -25.5028 -25.4646 -25.3835 -25.3669
   -25.3499 -25.3171 -25.3067 -25.2873 -25.2683 -25.1818 -25.1743 -25.1607
    15.7342  15.9518  16.1227  16.3470  16.4501  16.4863  16.5438  16.6240
    16.6429  16.9632  16.9841  17.2198  17.2954  17.4548  17.5747  17.7599
    17.8444  17.9628  18.0343  18.1273  18.1975  18.3395  18.3945  18.6228
    18.6733  18.8467  18.8746  19.0177  19.2417  19.5252  19.6577  19.9054
    20.0595  20.1615  20.3990  20.4395  20.5621  20.8071  20.8503  21.0763
    21.1736  21.4222  21.5007  23.4544  24.6657  25.0731  27.2086  27.5089
    29.4191  30.1080  30.2850  30.6190

          k = 0.3982 0.1272-0.1766 ( 15474 PWs)   bands (ev):

   -63.7392 -63.7387 -63.5560 -57.5947 -57.5813 -57.4917 -57.4881 -57.3612
   -29.4678 -29.4665 -29.4619 -29.4532 -29.4523 -29.4398 -29.2634 -29.2589
   -29.2244 -25.6219 -25.5360 -25.5090 -25.5026 -25.4647 -25.3875 -25.3709
   -25.3484 -25.3133 -25.3019 -25.2901 -25.2643 -25.1812 -25.1748 -25.1638
    15.6405  16.1405  16.1711  16.2349  16.3105  16.4267  16.5335  16.5935
    16.9419  16.9641  17.0503  17.1139  17.2015  17.4122  17.6644  17.8134
    17.8778  18.0040  18.0849  18.1617  18.2473  18.3062  18.3230  18.5130
    18.6219  18.8602  19.0363  19.1148  19.2043  19.3292  19.4845  19.6979
    19.9317  20.0946  20.3424  20.5352  20.6888  20.8530  20.9708  21.0950
    21.4519  21.6414  22.2090  22.5695  23.2466  26.4864  27.4884  28.7691
    28.8267  29.1212  29.3031  31.7848

          k = 0.4267 0.1575-0.0589 ( 15487 PWs)   bands (ev):

   -63.7392 -63.7387 -63.5560 -57.5947 -57.5813 -57.4917 -57.4881 -57.3612
   -29.4678 -29.4664 -29.4620 -29.4533 -29.4525 -29.4395 -29.2634 -29.2589
   -29.2244 -25.6221 -25.5364 -25.5083 -25.5026 -25.4647 -25.3860 -25.3706
   -25.3495 -25.3134 -25.3020 -25.2897 -25.2660 -25.1814 -25.1744 -25.1632
    15.6570  16.0894  16.1460  16.2686  16.3709  16.4467  16.5137  16.6022
    16.8617  16.9440  17.0243  17.1212  17.2516  17.5271  17.5814  17.8292
    17.8822  17.9525  18.0348  18.1353  18.2801  18.3106  18.3842  18.5077
    18.6188  18.9113  19.0039  19.0567  19.1622  19.3462  19.5608  19.7969
    19.9301  20.0571  20.4385  20.5161  20.6269  20.8241  20.9974  21.1169
    21.3827  21.4521  22.0639  22.7282  23.6184  26.0393  27.6427  28.6019
    28.9717  29.1351  29.3793  31.4367

          k = 0.4552 0.3348 0.0589 ( 15464 PWs)   bands (ev):

   -63.7390 -63.7387 -63.5561 -57.5916 -57.5824 -57.4917 -57.4894 -57.3617
   -29.4731 -29.4668 -29.4651 -29.4555 -29.4540 -29.4414 -29.2637 -29.2594
   -29.2225 -25.6804 -25.5598 -25.5313 -25.5135 -25.3993 -25.3891 -25.3606
   -25.3270 -25.3102 -25.2946 -25.2792 -25.2668 -25.1769 -25.1757 -25.1563
    15.6957  15.7202  15.8307  15.8631  16.2433  16.3059  16.6126  16.8317
    16.9039  17.1053  17.2736  17.3184  17.4285  17.6425  17.7274  17.9048
    18.1143  18.1566  18.2761  18.3205  18.4089  18.4273  18.4777  18.5298
    18.5858  18.7307  18.9170  18.9723  19.3996  19.4596  19.7821  19.8476
    19.9288  20.5540  20.6206  20.6829  20.8338  20.8965  20.9782  21.0183
    21.2187  21.2603  22.3371  23.6735  23.8010  25.2990  25.5470  25.7783
    28.5888  28.6555  29.1133  29.2504

          k = 0.4837 0.3651 0.1766 ( 15475 PWs)   bands (ev):

   -63.7390 -63.7387 -63.5561 -57.5916 -57.5824 -57.4915 -57.4895 -57.3617
   -29.4727 -29.4673 -29.4652 -29.4553 -29.4532 -29.4423 -29.2636 -29.2595
   -29.2224 -25.6801 -25.5597 -25.5320 -25.5124 -25.4042 -25.3893 -25.3628
   -25.3217 -25.3055 -25.2952 -25.2798 -25.2681 -25.1775 -25.1746 -25.1581
    15.6296  15.8411  15.8988  15.9667  15.9821  16.3032  16.5419  16.7022
    17.0214  17.1888  17.2391  17.4635  17.5680  17.6539  17.7356  17.8413
    17.9818  18.1038  18.1385  18.1973  18.3099  18.4156  18.5564  18.6131
    18.7349  19.0233  19.0739  19.1552  19.2103  19.2994  19.3967  19.6077
    19.9442  20.5813  20.6289  20.7779  20.8667  21.0499  21.1575  21.1966
    21.2650  21.4021  22.3056  22.9580  24.0432  24.6241  25.3452  26.6058
    28.6191  29.1557  29.2268  30.1132

          k = 0.3982 0.2741-0.1766 ( 15474 PWs)   bands (ev):

   -63.7390 -63.7387 -63.5561 -57.5916 -57.5824 -57.4913 -57.4897 -57.3617
   -29.4720 -29.4678 -29.4654 -29.4547 -29.4528 -29.4434 -29.2635 -29.2597
   -29.2223 -25.6796 -25.5597 -25.5328 -25.5107 -25.4126 -25.3901 -25.3570
   -25.3190 -25.3048 -25.2970 -25.2805 -25.2645 -25.1793 -25.1737 -25.1596
    15.7002  15.7257  15.9760  16.0069  16.0959  16.2465  16.2973  16.6190
    17.1351  17.1724  17.2699  17.4163  17.6278  17.6746  17.8459  17.8897
    17.9436  18.1370  18.2425  18.2955  18.3646  18.4104  18.5100  18.5878
    18.6871  18.7551  18.9518  19.0275  19.2137  19.3929  19.4625  19.5412
    19.7029  20.5880  20.7733  20.8380  21.0730  21.1583  21.2035  21.2691
    21.3276  22.2715  22.3159  22.4453  22.5458  25.2400  25.3425  26.6845
    28.9153  29.0593  30.2592  30.4413

          k = 0.4267 0.3045-0.0589 ( 15482 PWs)   bands (ev):

   -63.7390 -63.7387 -63.5561 -57.5916 -57.5824 -57.4915 -57.4896 -57.3617
   -29.4725 -29.4674 -29.4652 -29.4549 -29.4536 -29.4423 -29.2636 -29.2596
   -29.2224 -25.6800 -25.5597 -25.5322 -25.5121 -25.4058 -25.3899 -25.3614
   -25.3213 -25.3046 -25.2954 -25.2800 -25.2680 -25.1778 -25.1745 -25.1584
    15.6305  15.8513  15.9080  15.9578  16.0052  16.2543  16.5589  16.6495
    17.0307  17.2034  17.3094  17.4483  17.5121  17.6628  17.7236  17.9105
    18.0078  18.0855  18.1329  18.1679  18.2923  18.4426  18.5341  18.6278
    18.7798  18.9602  19.0956  19.1374  19.1810  19.3221  19.4036  19.5820
    19.8689  20.5785  20.6947  20.7748  20.8777  21.0810  21.1849  21.2094
    21.2740  21.4974  22.2986  22.8558  23.8032  24.7417  25.3558  26.6455
    28.5907  29.3531  29.3806  30.2264

          k = 0.4552 0.4817 0.0589 ( 15465 PWs)   bands (ev):

   -63.7388 -63.7387 -63.5562 -57.5879 -57.5845 -57.4913 -57.4908 -57.3621
   -29.4767 -29.4683 -29.4670 -29.4572 -29.4531 -29.4454 -29.2637 -29.2600
   -29.2209 -25.7114 -25.5924 -25.5241 -25.5215 -25.3923 -25.3793 -25.3521
   -25.3222 -25.2929 -25.2817 -25.2796 -25.2589 -25.1789 -25.1714 -25.1546
    15.5112  15.5294  15.6682  15.8148  15.9472  16.1379  16.9251  16.9630
    17.2796  17.3471  17.3859  17.4926  17.6209  17.6763  17.8105  17.8873
    17.9552  18.0730  18.1352  18.1638  18.3197  18.4251  18.5040  18.6498
    18.8735  18.9176  19.2496  19.3423  19.3741  19.4729  19.9257  20.0649
    20.3352  20.4272  20.4768  20.5770  20.8188  21.0763  21.1735  21.3712
    21.7576  22.0032  22.7445  22.7477  23.4774  23.7144  24.3239  24.6613
    28.5991  28.6757  28.8362  29.2158

          k = 0.4837 0.5120 0.1766 ( 15479 PWs)   bands (ev):

   -63.7388 -63.7387 -63.5562 -57.5879 -57.5845 -57.4912 -57.4909 -57.3621
   -29.4761 -29.4689 -29.4672 -29.4569 -29.4523 -29.4463 -29.2634 -29.2604
   -29.2209 -25.7112 -25.5924 -25.5272 -25.5177 -25.3990 -25.3804 -25.3466
   -25.3155 -25.2985 -25.2803 -25.2792 -25.2595 -25.1811 -25.1694 -25.1554
    15.4682  15.5971  15.6656  15.6880  16.2838  16.3225  16.3571  16.6298
    17.3280  17.5422  17.6102  17.6439  17.6869  17.8114  17.8990  17.9858
    17.9991  18.0410  18.1512  18.1699  18.2666  18.2961  18.3501  18.3650
    18.7319  18.8717  19.0539  19.1995  19.6041  19.7313  19.8712  20.0465
    20.3874  20.4505  20.5575  20.7804  20.9345  21.1703  21.2466  21.2622
    21.3791  22.2460  22.9853  23.0660  23.1270  23.3968  23.6242  24.9485
    28.6611  29.1604  29.2012  29.8448

          k = 0.3982 0.4211-0.1766 ( 15461 PWs)   bands (ev):

   -63.7388 -63.7387 -63.5562 -57.5879 -57.5845 -57.4912 -57.4909 -57.3621
   -29.4758 -29.4689 -29.4674 -29.4567 -29.4523 -29.4465 -29.2632 -29.2606
   -29.2209 -25.7112 -25.5923 -25.5279 -25.5166 -25.4028 -25.3793 -25.3444
   -25.3121 -25.3029 -25.2798 -25.2776 -25.2599 -25.1823 -25.1686 -25.1556
    15.4536  15.4915  15.8423  15.8663  16.0361  16.0484  16.5765  16.8105
    17.2788  17.4193  17.5995  17.6227  17.6747  17.7962  17.8578  17.9267
    17.9606  18.0326  18.0595  18.1483  18.4039  18.4743  18.4927  18.5863
    18.8178  18.9008  19.1299  19.1675  19.1915  19.3795  19.5277  20.2425
    20.4747  20.7083  20.8057  20.8377  20.9503  21.0220  21.2562  21.3796
    21.6381  22.2489  22.3322  23.1654  23.2636  23.2945  23.5277  24.9813
    28.9457  29.2854  29.7682  29.7954

          k = 0.4267 0.4514-0.0589 ( 15482 PWs)   bands (ev):

   -63.7388 -63.7387 -63.5562 -57.5879 -57.5845 -57.4913 -57.4908 -57.3621
   -29.4764 -29.4686 -29.4670 -29.4569 -29.4530 -29.4456 -29.2636 -29.2602
   -29.2209 -25.7113 -25.5924 -25.5261 -25.5191 -25.3955 -25.3804 -25.3491
   -25.3188 -25.2953 -25.2811 -25.2797 -25.2592 -25.1800 -25.1704 -25.1550
    15.5247  15.5735  15.5940  15.7238  16.0796  16.4126  16.5827  16.5958
    17.3381  17.5025  17.5931  17.6254  17.7253  17.8024  17.8128  17.9174
    17.9837  18.0266  18.0631  18.2061  18.3045  18.3468  18.3730  18.4916
    18.6038  18.8515  19.1870  19.2189  19.7044  19.8540  20.0293  20.1343
    20.1945  20.3038  20.3870  20.5591  20.8338  21.2015  21.2278  21.3866
    21.4823  22.1611  22.8551  22.8951  23.4462  23.6788  23.7063  24.8772
    28.5889  28.8482  28.8938  30.0051

          k = 0.4552-0.3998 0.0589 ( 15466 PWs)   bands (ev):

   -63.7388 -63.7387 -63.5562 -57.5877 -57.5847 -57.4912 -57.4909 -57.3621
   -29.4763 -29.4686 -29.4670 -29.4571 -29.4521 -29.4466 -29.2631 -29.2606
   -29.2209 -25.7108 -25.5926 -25.5286 -25.5160 -25.4011 -25.3779 -25.3478
   -25.3146 -25.3024 -25.2800 -25.2773 -25.2580 -25.1798 -25.1707 -25.1557
    15.4524  15.5366  15.7470  15.7687  16.1708  16.1822  16.4608  16.7427
    17.3390  17.4588  17.5816  17.6447  17.6622  17.7996  17.9090  17.9615
    17.9829  18.0462  18.0638  18.1596  18.3518  18.4051  18.4101  18.4938
    18.7672  18.8229  19.0633  19.2447  19.3929  19.4979  19.6802  20.2657
    20.3036  20.5998  20.6911  20.9516  21.0178  21.0702  21.2540  21.2766
    21.3793  22.2831  22.7083  23.0781  23.1744  23.3464  23.5719  24.9776
    28.7838  29.4329  29.4633  29.5742

          k = 0.4837-0.3695 0.1766 ( 15472 PWs)   bands (ev):

   -63.7388 -63.7387 -63.5562 -57.5877 -57.5847 -57.4913 -57.4908 -57.3621
   -29.4760 -29.4690 -29.4671 -29.4569 -29.4532 -29.4455 -29.2627 -29.2610
   -29.2209 -25.7110 -25.5927 -25.5257 -25.5196 -25.3942 -25.3812 -25.3494
   -25.3203 -25.2944 -25.2810 -25.2781 -25.2609 -25.1818 -25.1688 -25.1545
    15.5331  15.5492  15.5931  15.8203  15.9501  16.2765  16.7629  16.7676
    17.3540  17.4686  17.4918  17.5276  17.6300  17.7445  17.8129  17.8707
    17.9783  18.0550  18.1008  18.1854  18.2986  18.4097  18.5100  18.5796
    18.6975  18.7712  19.2899  19.3132  19.4837  19.7341  19.9749  20.1168
    20.2887  20.3179  20.3734  20.6129  20.7802  21.1445  21.2060  21.3817
    21.6342  22.0876  22.7856  22.8009  23.4620  23.6974  24.0481  24.7961
    28.6131  28.7262  28.7700  29.5947

          k = 0.3982-0.4604-0.1766 ( 15471 PWs)   bands (ev):

   -63.7388 -63.7387 -63.5562 -57.5877 -57.5847 -57.4913 -57.4908 -57.3621
   -29.4760 -29.4689 -29.4671 -29.4569 -29.4532 -29.4455 -29.2627 -29.2610
   -29.2209 -25.7110 -25.5927 -25.5257 -25.5195 -25.3939 -25.3814 -25.3495
   -25.3203 -25.2944 -25.2810 -25.2780 -25.2609 -25.1818 -25.1688 -25.1545
    15.5331  15.5492  15.5931  15.8201  15.9502  16.2768  16.7626  16.7675
    17.3542  17.4684  17.4919  17.5272  17.6302  17.7446  17.8132  17.8712
    17.9781  18.0548  18.1007  18.1854  18.2977  18.4103  18.5104  18.5800
    18.6968  18.7705  19.2903  19.3137  19.4844  19.7335  19.9741  20.1177
    20.2882  20.3180  20.3744  20.6126  20.7802  21.1446  21.2054  21.3808
    21.6343  22.0874  22.7858  22.8012  23.4619  23.6973  24.0487  24.7960
    28.6145  28.7267  28.7711  29.5913

          k = 0.4267-0.4301-0.0589 ( 15465 PWs)   bands (ev):

   -63.7388 -63.7387 -63.5562 -57.5877 -57.5847 -57.4912 -57.4909 -57.3621
   -29.4763 -29.4686 -29.4670 -29.4571 -29.4521 -29.4466 -29.2631 -29.2606
   -29.2209 -25.7108 -25.5926 -25.5286 -25.5160 -25.4010 -25.3781 -25.3478
   -25.3147 -25.3023 -25.2800 -25.2773 -25.2580 -25.1798 -25.1707 -25.1558
    15.4523  15.5367  15.7472  15.7689  16.1706  16.1820  16.4608  16.7430
    17.3393  17.4589  17.5809  17.6451  17.6625  17.7998  17.9084  17.9609
    17.9836  18.0452  18.0647  18.1598  18.3510  18.4042  18.4104  18.4937
    18.7672  18.8234  19.0640  19.2444  19.3929  19.4979  19.6806  20.2660
    20.3035  20.5999  20.6917  20.9515  21.0177  21.0688  21.2539  21.2759
    21.3791  22.2829  22.7093  23.0784  23.1748  23.3463  23.5718  24.9776
    28.7865  29.4327  29.4637  29.5715

          k = 0.4552-0.2529 0.0589 ( 15477 PWs)   bands (ev):

   -63.7390 -63.7387 -63.5561 -57.5915 -57.5825 -57.4915 -57.4896 -57.3617
   -29.4721 -29.4675 -29.4651 -29.4553 -29.4532 -29.4427 -29.2626 -29.2606
   -29.2224 -25.6789 -25.5604 -25.5330 -25.5109 -25.4068 -25.3906 -25.3618
   -25.3222 -25.3044 -25.2946 -25.2792 -25.2671 -25.1786 -25.1736 -25.1588
    15.6344  15.8635  15.8822  15.9844  16.0382  16.2075  16.5538  16.6173
    17.0445  17.2198  17.3657  17.4135  17.4744  17.6862  17.7223  17.9669
    18.0190  18.0773  18.1156  18.1624  18.2843  18.4638  18.5091  18.6505
    18.8195  18.8838  19.0342  19.1229  19.2021  19.3117  19.4538  19.5740
    19.7924  20.5672  20.7562  20.7816  20.8927  21.1076  21.1953  21.2251
    21.2854  21.6059  22.2908  22.7579  23.5695  24.8552  25.3593  26.6759
    28.5785  29.5003  29.6200  30.0959

          k = 0.4837-0.2226 0.1766 ( 15475 PWs)   bands (ev):

   -63.7390 -63.7387 -63.5561 -57.5915 -57.5825 -57.4917 -57.4894 -57.3617
   -29.4723 -29.4676 -29.4650 -29.4551 -29.4544 -29.4415 -29.2624 -29.2607
   -29.2225 -25.6795 -25.5605 -25.5320 -25.5126 -25.3996 -25.3899 -25.3623
   -25.3264 -25.3098 -25.2930 -25.2782 -25.2684 -25.1793 -25.1733 -25.1563
    15.6779  15.7453  15.8294  15.8719  16.1998  16.3515  16.5764  16.8698
    16.9006  17.0897  17.2438  17.3456  17.4641  17.6423  17.7279  17.9016
    18.1125  18.1509  18.1992  18.2955  18.3958  18.4571  18.5166  18.5480
    18.5957  18.7620  18.8806  19.0162  19.3821  19.4434  19.7295  19.8055
    20.0060  20.4974  20.6208  20.7494  20.8222  20.8945  20.9856  21.0387
    21.2201  21.2631  22.3336  23.5456  23.9323  25.2935  25.3139  25.9905
    28.5956  28.7094  29.0055  29.3676

          k = 0.3982-0.3135-0.1766 ( 15481 PWs)   bands (ev):

   -63.7390 -63.7387 -63.5561 -57.5915 -57.5825 -57.4916 -57.4895 -57.3617
   -29.4723 -29.4675 -29.4651 -29.4554 -29.4535 -29.4421 -29.2625 -29.2607
   -29.2224 -25.6792 -25.5604 -25.5325 -25.5118 -25.4025 -25.3899 -25.3640
   -25.3240 -25.3061 -25.2933 -25.2786 -25.2687 -25.1790 -25.1731 -25.1577
    15.6331  15.8337  15.8687  15.9478  16.0149  16.3562  16.5183  16.7580
    17.0156  17.1581  17.1891  17.4574  17.5956  17.6809  17.7507  17.7826
    17.9598  18.1145  18.1450  18.2353  18.3365  18.3920  18.5488  18.6302
    18.6887  19.0024  19.0549  19.1493  19.2309  19.3066  19.4315  19.6473
    20.0151  20.5204  20.6323  20.7714  20.8640  21.0163  21.1194  21.1740
    21.2577  21.3296  22.3116  23.0665  24.2705  24.5149  25.3287  26.5495
    28.6548  28.9729  29.1092  29.9518

          k = 0.4267-0.2832-0.0589 ( 15457 PWs)   bands (ev):

   -63.7390 -63.7387 -63.5561 -57.5915 -57.5825 -57.4913 -57.4897 -57.3617
   -29.4722 -29.4673 -29.4652 -29.4554 -29.4525 -29.4434 -29.2626 -29.2606
   -29.2223 -25.6787 -25.5604 -25.5335 -25.5099 -25.4113 -25.3907 -25.3587
   -25.3205 -25.3060 -25.2957 -25.2794 -25.2636 -25.1774 -25.1756 -25.1596
    15.6814  15.7511  15.9491  16.0405  16.0885  16.2020  16.3487  16.6226
    17.1233  17.1890  17.2703  17.4148  17.6074  17.6787  17.8371  17.8852
    17.9736  18.1248  18.2230  18.2755  18.3453  18.4231  18.5081  18.6369
    18.6600  18.7973  18.9210  19.0593  19.1930  19.4003  19.4632  19.5527
    19.6936  20.5855  20.7530  20.8604  21.0468  21.1582  21.2005  21.2683
    21.3237  22.1422  22.2993  22.4649  22.7183  25.1983  25.3509  26.6932
    28.7937  29.2229  30.1130  30.5338

          k = 0.4552-0.1060 0.0589 ( 15471 PWs)   bands (ev):

   -63.7392 -63.7387 -63.5560 -57.5946 -57.5814 -57.4919 -57.4879 -57.3612
   -29.4678 -29.4659 -29.4623 -29.4536 -29.4528 -29.4390 -29.2627 -29.2596
   -29.2244 -25.6214 -25.5373 -25.5068 -25.5034 -25.4653 -25.3848 -25.3694
   -25.3502 -25.3141 -25.3047 -25.2874 -25.2681 -25.1819 -25.1739 -25.1618
    15.6985  16.0067  16.1273  16.3200  16.4452  16.4799  16.5074  16.6156
    16.7102  16.9609  16.9864  17.1943  17.2970  17.4635  17.5928  17.8128
    17.8760  17.9675  18.0010  18.0960  18.2240  18.3359  18.4058  18.5685
    18.6555  18.8836  18.9336  19.0406  19.1600  19.4401  19.6296  19.8853
    20.0107  20.0790  20.4509  20.4851  20.5867  20.7970  20.9522  21.0940
    21.1715  21.4480  21.7027  23.1530  24.2427  25.4156  27.5818  27.8023
    29.2474  29.7113  29.7988  30.9431

          k = 0.4837-0.0756 0.1766 ( 15470 PWs)   bands (ev):

   -63.7392 -63.7388 -63.5560 -57.5946 -57.5814 -57.4921 -57.4877 -57.3612
   -29.4679 -29.4661 -29.4622 -29.4538 -29.4529 -29.4384 -29.2627 -29.2595
   -29.2245 -25.6221 -25.5377 -25.5056 -25.5033 -25.4653 -25.3851 -25.3641
   -25.3453 -25.3245 -25.3079 -25.2853 -25.2683 -25.1810 -25.1755 -25.1594
    15.8163  15.8550  16.1242  16.3837  16.4326  16.4847  16.5444  16.6276
    16.6721  16.9564  17.0391  17.0777  17.4384  17.4658  17.5743  17.6314
    17.7578  17.9572  18.0148  18.2065  18.2256  18.3602  18.3837  18.6458
    18.6908  18.7829  18.8428  18.9787  19.4054  19.4952  19.8598  19.9424
    20.0593  20.1538  20.2631  20.4166  20.5009  20.8879  20.9433  20.9939
    21.0726  21.2209  21.4745  24.0936  24.2644  25.7846  26.0578  27.4135
    29.8787  30.0468  30.7400  30.9283

          k = 0.3982-0.1666-0.1766 ( 15473 PWs)   bands (ev):

   -63.7392 -63.7387 -63.5560 -57.5946 -57.5814 -57.4918 -57.4880 -57.3612
   -29.4679 -29.4657 -29.4623 -29.4535 -29.4526 -29.4393 -29.2627 -29.2596
   -29.2244 -25.6212 -25.5371 -25.5069 -25.5036 -25.4654 -25.3848 -25.3706
   -25.3502 -25.3134 -25.3039 -25.2878 -25.2674 -25.1820 -25.1737 -25.1624
    15.6832  16.0337  16.1318  16.3037  16.4268  16.4722  16.5036  16.6092
    16.7570  16.9527  16.9989  17.1655  17.2928  17.4924  17.5902  17.8354
    17.8676  17.9589  17.9958  18.1066  18.2468  18.3255  18.4124  18.5397
    18.6434  18.9012  18.9700  19.0391  19.1396  19.4011  19.6141  19.8729
    19.9698  20.0594  20.4653  20.5012  20.5905  20.7949  21.0005  21.1135
    21.1937  21.4487  21.8211  23.0032  24.0304  25.6201  27.6178  28.0874
    29.1707  29.4467  29.6530  31.1091

          k = 0.4267-0.1363-0.0589 ( 15470 PWs)   bands (ev):

   -63.7392 -63.7387 -63.5560 -57.5946 -57.5814 -57.4916 -57.4882 -57.3612
   -29.4680 -29.4653 -29.4624 -29.4534 -29.4524 -29.4399 -29.2627 -29.2596
   -29.2243 -25.6205 -25.5362 -25.5089 -25.5032 -25.4654 -25.3891 -25.3717
   -25.3468 -25.3127 -25.3024 -25.2898 -25.2634 -25.1825 -25.1739 -25.1639
    15.6340  16.1785  16.2003  16.2198  16.2531  16.4189  16.5487  16.5859
    16.9484  17.0013  17.0728  17.1402  17.2068  17.2837  17.7295  17.7809
    17.8788  18.0576  18.1254  18.1723  18.2173  18.2466  18.3116  18.5254
    18.6355  18.8205  19.0632  19.1301  19.2446  19.3525  19.4060  19.6446
    19.9322  20.1518  20.2537  20.5428  20.7347  20.8494  20.9683  21.0759
    21.4544  21.9016  22.0443  22.7598  22.9081  26.9275  27.1436  28.7791
    28.8416  28.9336  29.5264  32.0316

     the Fermi energy is    20.9782 ev

!    total energy              =   -1844.20701713 Ry
     estimated scf accuracy    <          7.4E-09 Ry
     smearing contrib. (-TS)   =      -0.00372675 Ry
     internal energy E=F+TS    =   -1844.20329038 Ry

     The total energy is F=E-TS. E is the sum of the following terms:
     one-electron contribution =    -480.93697996 Ry
     hartree contribution      =     327.99556375 Ry
     xc contribution           =    -184.03852166 Ry
     ewald contribution        =   -1507.22335252 Ry

     convergence has been achieved in  17 iterations

     Forces acting on atoms (cartesian axes, Ry/au):

     atom    1 type  1   force =    -0.00113518   -0.00145943   -0.00456020
     atom    2 type  1   force =    -0.00012877    0.00009429   -0.00011945
     atom    3 type  1   force =     0.00125890    0.00124049    0.00451343
     atom    4 type  2   force =     0.00071578    0.00081326    0.00304226
     atom    5 type  2   force =    -0.00003640   -0.00005466    0.00003541
     atom    6 type  2   force =    -0.00080614   -0.00067007   -0.00326831
     atom    7 type  2   force =     0.00009457    0.00009839    0.00005461
     atom    8 type  2   force =     0.00003724   -0.00006228    0.00030225

     Total force =     0.008372     Total SCF correction =     0.000356


     Computing stress (Cartesian axis) and pressure

          total   stress  (Ry/bohr**3)                   (kbar)     P=      -29.17
  -0.00019940   0.00000717   0.00000391          -29.33        1.06        0.58
   0.00000717  -0.00021921   0.00001111            1.06      -32.25        1.63
   0.00000391   0.00001111  -0.00017628            0.58        1.63      -25.93


     Writing all to output data dir /home/tenant3/nexus-mat/dft/runs/dft-paper-worker-05/jobs/Pd-Rh-08_Pd3Rh5/tmp/Pd-Rh-08_Pd3Rh5.save/ :
     XML data file, charge density, pseudopotentials, collected wavefunctions

     init_run     :    193.96s CPU    198.08s WALL (       1 calls)
     electrons    :   9445.07s CPU   9485.41s WALL (       1 calls)
     forces       :    159.64s CPU    159.67s WALL (       1 calls)
     stress       :    586.74s CPU    587.75s WALL (       1 calls)

     Called by init_run:
     wfcinit      :    192.94s CPU    195.82s WALL (       1 calls)
     potinit      :      0.61s CPU      1.35s WALL (       1 calls)
     hinit0       :      0.20s CPU      0.44s WALL (       1 calls)

     Called by electrons:
     c_bands      :   9072.63s CPU   9112.26s WALL (      18 calls)
     sum_band     :    365.44s CPU    365.78s WALL (      18 calls)
     v_of_rho     :      5.80s CPU      6.72s WALL (      18 calls)
     mix_rho      :      1.04s CPU      1.05s WALL (      18 calls)

     Called by c_bands:
     init_us_2    :     30.01s CPU     30.05s WALL (    3822 calls)
     cegterg      :   8993.61s CPU   9032.88s WALL (    1764 calls)

     Called by *egterg:
     cdiaghg      :     30.53s CPU     30.54s WALL (    4375 calls)
     h_psi        :   4506.56s CPU   4524.58s WALL (    4571 calls)
     g_psi        :      8.71s CPU      8.71s WALL (    2709 calls)

     Called by h_psi:
     h_psi:calbec :   1753.38s CPU   1753.90s WALL (    4571 calls)
     vloc_psi     :   1316.37s CPU   1318.64s WALL (    4571 calls)
                                        0.00s GPU  (    4571 calls)
     add_vuspsi   :   1424.51s CPU   1424.68s WALL (    4571 calls)

     General routines
     calbec       :   2478.95s CPU   2479.54s WALL (    6237 calls)
     fft          :      3.78s CPU      4.07s WALL (     222 calls)
     ffts         :      0.11s CPU      0.12s WALL (      36 calls)
     fftw         :   1371.76s CPU   1373.99s WALL (  779924 calls)
     interpolate  :      0.45s CPU      0.49s WALL (      18 calls)


     PWSCF        :      2h53m CPU      2h53m WALL


   This run was terminated on:  22:27:28  20Jul2026            

=------------------------------------------------------------------------------=
   JOB DONE.
=------------------------------------------------------------------------------=
