
     Program PWSCF v.7.5 starts on 21Jul2026 at  8:29: 2 

     This program is part of the open-source Quantum ESPRESSO suite
     for quantum simulation of materials; please cite
         "P. Giannozzi et al., J. Phys.:Condens. Matter 21 395502 (2009);
         "P. Giannozzi et al., J. Phys.:Condens. Matter 29 465901 (2017);
         "P. Giannozzi et al., J. Chem. Phys. 152 154105 (2020);
          URL http://www.quantum-espresso.org", 
     in publications or presentations arising from this work. More details at
     http://www.quantum-espresso.org/quote

     Serial multi-threaded version, running on    1 processor cores
     6919 MiB available memory on the printing compute node when the environment starts

     Reading input from /home/tenant3/nexus-mat/dft/runs/dft-paper-worker-07/jobs/Pt-Rh-16_Pt2Rh4/input.in

     Current dimensions of program PWSCF are:
     Max number of different atomic species (ntypx) = 10
     Max number of k-points (npk) =  40000
     Max angular momentum in pseudopotentials (lmaxx) =  4
     file Pt.pbe-spfn-rrkjus_psl.1.0.0.UPF: wavefunction(s)  5P renormalized


     G-vector sticks info
     --------------------
     sticks:   dense  smooth     PW     G-vecs:    dense   smooth      PW
     Sum        3529    1773    503               264501    93527   14387

     Using Slab Decomposition



     bravais-lattice index     =            0
     lattice parameter (alat)  =       5.2058  a.u.
     unit-cell volume          =     599.6724 (a.u.)^3
     number of atoms/cell      =            6
     number of atomic types    =            2
     number of electrons       =       132.00
     number of Kohn-Sham states=           79
     kinetic-energy cutoff     =     110.0000  Ry
     charge density cutoff     =     880.0000  Ry
     scf convergence threshold =      1.0E-08
     mixing beta               =       0.3000
     number of iterations used =            8  plain     mixing
     Exchange-correlation= PBE
                           (   1   4   3   4   0   0   0)

     celldm(1)=   5.205760  celldm(2)=   0.000000  celldm(3)=   0.000000
     celldm(4)=   0.000000  celldm(5)=   0.000000  celldm(6)=   0.000000

     crystal axes: (cart. coord. in units of alat)
               a(1) = (   1.000000   0.000000   0.000591 )  
               a(2) = (  -0.499210   1.784354  -0.509493 )  
               a(3) = (   0.000000   0.000000   2.382214 )  

     reciprocal axes: (cart. coord. in units 2 pi/alat)
               b(1) = (  1.000000  0.279771 -0.000000 )  
               b(2) = (  0.000000  0.560427  0.000000 )  
               b(3) = ( -0.000248  0.119791  0.419778 )  


     PseudoPot. # 1 for Pt read from file:
     /home/tenant3/nexus-mat/dft/pseudo/SSSP_1.3.0_PBE_precision/Pt.pbe-spfn-rrkjus_psl.1.0.0.UPF
     MD5 check sum: ed006ba81d2b6b3b17616bb61ae12f04
     Pseudo is Ultrasoft + core correction, Zval = 32.0
     Generated using "atomic" code by A. Dal Corso  v.5.1
     Using radial grid of 1277 points,  8 beta functions with: 
                l(1) =   0
                l(2) =   0
                l(3) =   1
                l(4) =   1
                l(5) =   2
                l(6) =   2
                l(7) =   3
                l(8) =   3
     Q(r) pseudized with 0 coefficients 


     PseudoPot. # 2 for Rh read from file:
     /home/tenant3/nexus-mat/dft/pseudo/SSSP_1.3.0_PBE_precision/Rh_ONCV_PBE-1.0.oncvpsp.upf
     MD5 check sum: ba07c69523b14cacd10683cd4c4284c1
     Pseudo is Norm-conserving, Zval = 17.0
     Generated using ONCVPSP code by D. R. Hamann
     Using radial grid of 1442 points,  6 beta functions with: 
                l(1) =   0
                l(2) =   0
                l(3) =   1
                l(4) =   1
                l(5) =   2
                l(6) =   2

     atomic species   valence    mass     pseudopotential
     Pt               32.00   195.08400     Pt( 1.00)
     Rh               17.00   102.90549     Rh( 1.00)

     No symmetry found



   Cartesian axes

     site n.     atom                  positions (alat units)
         1        Pt     tau(   1) = (  -0.0767864   0.7171169   0.8978124  )
         2        Pt     tau(   2) = (  -0.0766344   0.9150810  -0.0956382  )
         3        Rh     tau(   3) = (   0.4231165   0.3087870   1.6678823  )
         4        Rh     tau(   4) = (   0.4227781   0.1160304   0.2670427  )
         5        Rh     tau(   5) = (   0.4236844   1.5160458   0.5355774  )
         6        Rh     tau(   6) = (   0.4236278   1.3229270   1.5171977  )

     number of k points=   120  Marzari-Vanderbilt smearing, width (Ry)=  0.0200

     Number of k-points >= 100: set verbosity='high' to print them.

     Dense  grid:   264501 G-vectors     FFT dimensions: (  50,  96, 120)

     Smooth grid:    93527 G-vectors     FFT dimensions: (  36,  72,  90)

     Estimated max dynamical RAM per process >       4.15 GB

     Initial potential from superposition of free atoms

     starting charge     131.9980, renormalised to     132.0000
     Starting wfcs are   74 randomized atomic wfcs +    5 random wfcs

     total cpu time spent up to now is      748.9 secs

     Self-consistent Calculation

     iteration #  1     ecut=   110.00 Ry     beta= 0.30
     Davidson diagonalization with overlap
     ethr =  1.00E-02,  avg # of iterations =  3.0

     total cpu time spent up to now is     3429.9 secs

     total energy              =   -2932.49486957 Ry
     estimated scf accuracy    <       2.12990382 Ry

     iteration #  2     ecut=   110.00 Ry     beta= 0.30
     Davidson diagonalization with overlap
     ethr =  1.61E-03,  avg # of iterations =  2.3

     total cpu time spent up to now is     6139.1 secs

     total energy              =   -2932.85788676 Ry
     estimated scf accuracy    <       8.19561642 Ry

     iteration #  3     ecut=   110.00 Ry     beta= 0.30
     Davidson diagonalization with overlap
     ethr =  1.61E-03,  avg # of iterations =  2.0

     total cpu time spent up to now is     8556.5 secs

     total energy              =   -2933.22141004 Ry
     estimated scf accuracy    <       4.89847093 Ry

     iteration #  4     ecut=   110.00 Ry     beta= 0.30
     Davidson diagonalization with overlap
     ethr =  1.61E-03,  avg # of iterations =  1.0

     total cpu time spent up to now is    10538.8 secs

     total energy              =   -2933.37330576 Ry
     estimated scf accuracy    <       0.28490125 Ry

     iteration #  5     ecut=   110.00 Ry     beta= 0.30
     Davidson diagonalization with overlap
     ethr =  2.16E-04,  avg # of iterations =  1.3

     total cpu time spent up to now is    12600.6 secs

     total energy              =   -2933.39332484 Ry
     estimated scf accuracy    <       0.00288510 Ry

     iteration #  6     ecut=   110.00 Ry     beta= 0.30
     Davidson diagonalization with overlap
     ethr =  2.19E-06,  avg # of iterations =  6.8

     total cpu time spent up to now is    15623.1 secs

     total energy              =   -2933.39429526 Ry
     estimated scf accuracy    <       0.01457751 Ry

     iteration #  7     ecut=   110.00 Ry     beta= 0.30
     Davidson diagonalization with overlap
     ethr =  2.19E-06,  avg # of iterations =  1.0

     total cpu time spent up to now is    17616.1 secs

     total energy              =   -2933.39364690 Ry
     estimated scf accuracy    <       0.00850780 Ry

     iteration #  8     ecut=   110.00 Ry     beta= 0.30
     Davidson diagonalization with overlap
     ethr =  2.19E-06,  avg # of iterations =  1.1

     total cpu time spent up to now is    19638.5 secs

     total energy              =   -2933.39400618 Ry
     estimated scf accuracy    <       0.00174666 Ry

     iteration #  9     ecut=   110.00 Ry     beta= 0.30
     Davidson diagonalization with overlap
     ethr =  1.32E-06,  avg # of iterations =  1.0

     total cpu time spent up to now is    21617.1 secs

     total energy              =   -2933.39416121 Ry
     estimated scf accuracy    <       0.00018419 Ry

     iteration # 10     ecut=   110.00 Ry     beta= 0.30
     Davidson diagonalization with overlap
     ethr =  1.40E-07,  avg # of iterations =  1.9

     total cpu time spent up to now is    23892.1 secs

     total energy              =   -2933.39408910 Ry
     estimated scf accuracy    <       0.00066380 Ry

     iteration # 11     ecut=   110.00 Ry     beta= 0.30
     Davidson diagonalization with overlap
     ethr =  1.40E-07,  avg # of iterations =  1.9

     total cpu time spent up to now is    26175.5 secs

     total energy              =   -2933.39414739 Ry
     estimated scf accuracy    <       0.00002195 Ry

     iteration # 12     ecut=   110.00 Ry     beta= 0.30
     Davidson diagonalization with overlap
     ethr =  1.66E-08,  avg # of iterations =  1.0

     total cpu time spent up to now is    28156.1 secs

     total energy              =   -2933.39414920 Ry
     estimated scf accuracy    <       0.00000088 Ry

     iteration # 13     ecut=   110.00 Ry     beta= 0.30
     Davidson diagonalization with overlap
     ethr =  6.64E-10,  avg # of iterations =  1.4

     total cpu time spent up to now is    30248.0 secs

     total energy              =   -2933.39414927 Ry
     estimated scf accuracy    <       0.00000106 Ry

     iteration # 14     ecut=   110.00 Ry     beta= 0.30
     Davidson diagonalization with overlap
     ethr =  6.64E-10,  avg # of iterations =  1.0

     total cpu time spent up to now is    32228.2 secs

     total energy              =   -2933.39414934 Ry
     estimated scf accuracy    <       0.00000002 Ry

     iteration # 15     ecut=   110.00 Ry     beta= 0.30
     Davidson diagonalization with overlap
     ethr =  1.38E-11,  avg # of iterations =  1.9

     total cpu time spent up to now is    34375.7 secs

     End of self-consistent calculation

     Number of k-points >= 100: set verbosity='high' to print the bands.

     the Fermi energy is    23.2177 ev

!    total energy              =   -2933.39414934 Ry
     estimated scf accuracy    <          4.4E-09 Ry
     smearing contrib. (-TS)   =      -0.00440262 Ry
     internal energy E=F+TS    =   -2933.38974672 Ry

     The total energy is F=E-TS. E is the sum of the following terms:
     one-electron contribution =   -1791.02818248 Ry
     hartree contribution      =     980.50567396 Ry
     xc contribution           =    -238.69794814 Ry
     ewald contribution        =   -1884.16929006 Ry

     convergence has been achieved in  15 iterations

     Forces acting on atoms (cartesian axes, Ry/au):

     atom    1 type  1   force =     0.00051553   -0.00155366    0.00007883
     atom    2 type  1   force =    -0.00049481    0.00132247   -0.00007207
     atom    3 type  2   force =    -0.00044475   -0.00471803    0.00022653
     atom    4 type  2   force =     0.00063586   -0.00529498   -0.00060179
     atom    5 type  2   force =    -0.00056794    0.00536550    0.00068709
     atom    6 type  2   force =     0.00035610    0.00487870   -0.00031859

     Total force =     0.010469     Total SCF correction =     0.000151


     Computing stress (Cartesian axis) and pressure

          total   stress  (Ry/bohr**3)                   (kbar)     P=      -27.52
  -0.00021301  -0.00000163  -0.00000472          -31.34       -0.24       -0.69
  -0.00000163  -0.00017188   0.00001681           -0.24      -25.28        2.47
  -0.00000472   0.00001681  -0.00017630           -0.69        2.47      -25.93


     Writing all to output data dir /home/tenant3/nexus-mat/dft/runs/dft-paper-worker-07/jobs/Pt-Rh-16_Pt2Rh4/tmp/Pt-Rh-16_Pt2Rh4.save/ :
     XML data file, charge density, pseudopotentials, collected wavefunctions

     init_run     :    147.28s CPU    748.26s WALL (       1 calls)
     electrons    :   6689.61s CPU  33626.91s WALL (       1 calls)
     forces       :    103.82s CPU    471.08s WALL (       1 calls)
     stress       :    351.25s CPU   1589.94s WALL (       1 calls)

     Called by init_run:
     wfcinit      :    144.14s CPU    728.54s WALL (       1 calls)
     potinit      :      0.28s CPU      1.62s WALL (       1 calls)
     hinit0       :      0.68s CPU      3.50s WALL (       1 calls)

     Called by electrons:
     c_bands      :   5946.45s CPU  29824.74s WALL (      15 calls)
     sum_band     :    709.06s CPU   3581.40s WALL (      15 calls)
     v_of_rho     :      3.19s CPU     17.15s WALL (      16 calls)
     newd         :     32.31s CPU    214.40s WALL (      16 calls)
     mix_rho      :      0.50s CPU      2.53s WALL (      15 calls)

     Called by c_bands:
     init_us_2    :     29.92s CPU    148.49s WALL (    3960 calls)
     cegterg      :   5845.01s CPU  29317.26s WALL (    1800 calls)

     Called by *egterg:
     cdiaghg      :     49.30s CPU    246.34s WALL (    5211 calls)
     h_psi        :   2717.94s CPU  13636.02s WALL (    5331 calls)
     s_psi        :    657.07s CPU   3278.96s WALL (    5331 calls)
     g_psi        :      4.15s CPU     20.63s WALL (    3411 calls)

     Called by h_psi:
     h_psi:calbec :    802.79s CPU   4006.69s WALL (    5331 calls)
     vloc_psi     :   1250.76s CPU   6249.19s WALL (    5331 calls)
                                        0.00s GPU  (    5331 calls)
     add_vuspsi   :    658.43s CPU   3283.55s WALL (    5331 calls)

     General routines
     calbec       :   1581.52s CPU   7682.15s WALL (    9171 calls)
     fft          :      2.39s CPU     11.57s WALL (     231 calls)
     ffts         :      0.10s CPU      0.53s WALL (      31 calls)
     fftw         :   1348.32s CPU   6925.29s WALL (  767450 calls)
     interpolate  :      0.25s CPU      1.28s WALL (      16 calls)


     PWSCF        :      2h 1m CPU     10h 7m WALL


   This run was terminated on:  18:36:23  21Jul2026            

=------------------------------------------------------------------------------=
   JOB DONE.
=------------------------------------------------------------------------------=
