
     Program PWSCF v.7.5 starts on 20Jul2026 at 14:27:27 

     This program is part of the open-source Quantum ESPRESSO suite
     for quantum simulation of materials; please cite
         "P. Giannozzi et al., J. Phys.:Condens. Matter 21 395502 (2009);
         "P. Giannozzi et al., J. Phys.:Condens. Matter 29 465901 (2017);
         "P. Giannozzi et al., J. Chem. Phys. 152 154105 (2020);
          URL http://www.quantum-espresso.org", 
     in publications or presentations arising from this work. More details at
     http://www.quantum-espresso.org/quote

     Serial multi-threaded version, running on    1 processor cores
     31293 MiB available memory on the printing compute node when the environment starts

     Reading input from /home/tenant3/nexus-mat/dft/runs/dft-static-v3-worker-02/jobs/Pd-Rh-01_Pd4Rh/input.in

     Current dimensions of program PWSCF are:
     Max number of different atomic species (ntypx) = 10
     Max number of k-points (npk) =  40000
     Max angular momentum in pseudopotentials (lmaxx) =  4
     Message from routine setup:
     no reason to have ecutrho>4*ecutwfc


     G-vector sticks info
     --------------------
     sticks:   dense  smooth     PW     G-vecs:    dense   smooth      PW
     Sum        4293    2159    625               225125    79775   12261

     Using Slab Decomposition



     bravais-lattice index     =            0
     lattice parameter (alat)  =       7.3874  a.u.
     unit-cell volume          =     510.8438 (a.u.)^3
     number of atoms/cell      =            5
     number of atomic types    =            2
     number of electrons       =        89.00
     number of Kohn-Sham states=           54
     kinetic-energy cutoff     =     110.0000  Ry
     charge density cutoff     =     880.0000  Ry
     scf convergence threshold =      1.0E-08
     mixing beta               =       0.3000
     number of iterations used =            8  plain     mixing
     Exchange-correlation= PBE
                           (   1   4   3   4   0   0   0)

     celldm(1)=   7.387424  celldm(2)=   0.000000  celldm(3)=   0.000000
     celldm(4)=   0.000000  celldm(5)=   0.000000  celldm(6)=   0.000000

     crystal axes: (cart. coord. in units of alat)
               a(1) = (   0.914052   0.000000   0.405597 )  
               a(2) = (   0.456787   1.125736   0.202482 )  
               a(3) = (   0.000000   0.000000   1.231407 )  

     reciprocal axes: (cart. coord. in units 2 pi/alat)
               b(1) = (  1.094030 -0.443922  0.000000 )  
               b(2) = (  0.000000  0.888308  0.000000 )  
               b(3) = ( -0.360348  0.000152  0.812079 )  


     PseudoPot. # 1 for Pd read from file:
     /home/tenant3/nexus-mat/dft/pseudo/SSSP_1.3.0_PBE_precision/Pd_ONCV_PBE-1.0.oncvpsp.upf
     MD5 check sum: eb77f42b51d86fb18e25f68156a31cf1
     Pseudo is Norm-conserving, Zval = 18.0
     Generated using ONCVPSP code by D. R. Hamann
     Using radial grid of 1410 points,  6 beta functions with: 
                l(1) =   0
                l(2) =   0
                l(3) =   1
                l(4) =   1
                l(5) =   2
                l(6) =   2

     PseudoPot. # 2 for Rh read from file:
     /home/tenant3/nexus-mat/dft/pseudo/SSSP_1.3.0_PBE_precision/Rh_ONCV_PBE-1.0.oncvpsp.upf
     MD5 check sum: ba07c69523b14cacd10683cd4c4284c1
     Pseudo is Norm-conserving, Zval = 17.0
     Generated using ONCVPSP code by D. R. Hamann
     Using radial grid of 1442 points,  6 beta functions with: 
                l(1) =   0
                l(2) =   0
                l(3) =   1
                l(4) =   1
                l(5) =   2
                l(6) =   2

     atomic species   valence    mass     pseudopotential
     Pd               18.00   106.42000     Pd( 1.00)
     Rh               17.00   102.90549     Rh( 1.00)

     No symmetry found



   Cartesian axes

     site n.     atom                  positions (alat units)
         1        Pd     tau(   1) = (   0.4624367   0.3081657   0.9419817  )
         2        Pd     tau(   2) = (   0.8271208   0.7543004   1.3520118  )
         3        Pd     tau(   3) = (   0.5541289   0.9804922   0.7346993  )
         4        Pd     tau(   4) = (   0.7352926   0.0820605   0.3276924  )
         5        Rh     tau(   5) = (   1.1017525   0.5312762   0.7340612  )

     number of k points=   144  Marzari-Vanderbilt smearing, width (Ry)=  0.0200

     Number of k-points >= 100: set verbosity='high' to print them.

     Dense  grid:   225125 G-vectors     FFT dimensions: (  72,  90,  90)

     Smooth grid:    79775 G-vectors     FFT dimensions: (  50,  64,  64)

     Estimated max dynamical RAM per process >       1.35 GB

     Initial potential from superposition of free atoms

     starting charge      88.9981, renormalised to      89.0000
     Starting wfcs are   50 randomized atomic wfcs +    4 random wfcs

     total cpu time spent up to now is       68.4 secs

     Self-consistent Calculation

     iteration #  1     ecut=   110.00 Ry     beta= 0.30
     Davidson diagonalization with overlap
     ethr =  1.00E-02,  avg # of iterations =  3.0

     Threshold (ethr) on eigenvalues was too large:
     Diagonalizing with lowered threshold

     Davidson diagonalization with overlap
     ethr =  1.56E-04,  avg # of iterations =  2.0

     total cpu time spent up to now is      636.0 secs

     total energy              =   -1229.69945314 Ry
     estimated scf accuracy    <       0.13395341 Ry

     iteration #  2     ecut=   110.00 Ry     beta= 0.30
     Davidson diagonalization with overlap
     ethr =  1.51E-04,  avg # of iterations =  2.1

     total cpu time spent up to now is      958.6 secs

     total energy              =   -1229.69032574 Ry
     estimated scf accuracy    <       0.64539778 Ry

     iteration #  3     ecut=   110.00 Ry     beta= 0.30
     Davidson diagonalization with overlap
     ethr =  1.51E-04,  avg # of iterations =  2.0

     total cpu time spent up to now is     1249.7 secs

     total energy              =   -1229.73619121 Ry
     estimated scf accuracy    <       0.00916705 Ry

     iteration #  4     ecut=   110.00 Ry     beta= 0.30
     Davidson diagonalization with overlap
     ethr =  1.03E-05,  avg # of iterations =  2.7

     total cpu time spent up to now is     1483.0 secs

     total energy              =   -1229.73602615 Ry
     estimated scf accuracy    <       0.00162268 Ry

     iteration #  5     ecut=   110.00 Ry     beta= 0.30
     Davidson diagonalization with overlap
     ethr =  1.82E-06,  avg # of iterations =  3.3

     total cpu time spent up to now is     1592.5 secs

     total energy              =   -1229.73612463 Ry
     estimated scf accuracy    <       0.00006990 Ry

     iteration #  6     ecut=   110.00 Ry     beta= 0.30
     Davidson diagonalization with overlap
     ethr =  7.85E-08,  avg # of iterations =  2.0

     total cpu time spent up to now is     1791.2 secs

     total energy              =   -1229.73613252 Ry
     estimated scf accuracy    <       0.00007020 Ry

     iteration #  7     ecut=   110.00 Ry     beta= 0.30
     Davidson diagonalization with overlap
     ethr =  7.85E-08,  avg # of iterations =  1.0

     total cpu time spent up to now is     1957.1 secs

     total energy              =   -1229.73613861 Ry
     estimated scf accuracy    <       0.00000345 Ry

     iteration #  8     ecut=   110.00 Ry     beta= 0.30
     Davidson diagonalization with overlap
     ethr =  3.87E-09,  avg # of iterations =  1.1

     total cpu time spent up to now is     2174.2 secs

     total energy              =   -1229.73613894 Ry
     estimated scf accuracy    <       0.00000042 Ry

     iteration #  9     ecut=   110.00 Ry     beta= 0.30
     Davidson diagonalization with overlap
     ethr =  4.76E-10,  avg # of iterations =  1.5

     total cpu time spent up to now is     2362.2 secs

     total energy              =   -1229.73613896 Ry
     estimated scf accuracy    <       0.00000027 Ry

     iteration # 10     ecut=   110.00 Ry     beta= 0.30
     Davidson diagonalization with overlap
     ethr =  3.00E-10,  avg # of iterations =  1.0

     total cpu time spent up to now is     2545.0 secs

     total energy              =   -1229.73613897 Ry
     estimated scf accuracy    <       0.00000006 Ry

     iteration # 11     ecut=   110.00 Ry     beta= 0.30
     Davidson diagonalization with overlap
     ethr =  6.21E-11,  avg # of iterations =  1.0

     total cpu time spent up to now is     2718.2 secs

     End of self-consistent calculation

     Number of k-points >= 100: set verbosity='high' to print the bands.

     the Fermi energy is    19.7022 ev

!    total energy              =   -1229.73613898 Ry
     estimated scf accuracy    <          3.1E-09 Ry
     smearing contrib. (-TS)   =      -0.00209953 Ry
     internal energy E=F+TS    =   -1229.73403945 Ry

     The total energy is F=E-TS. E is the sum of the following terms:
     one-electron contribution =    -367.17254846 Ry
     hartree contribution      =     237.57939786 Ry
     xc contribution           =    -121.13297094 Ry
     ewald contribution        =    -979.00791792 Ry

     convergence has been achieved in  11 iterations

     Forces acting on atoms (cartesian axes, Ry/au):

     atom    1 type  1   force =     0.00044296    0.00329790   -0.00146534
     atom    2 type  1   force =    -0.00056004   -0.00323715    0.00131199
     atom    3 type  1   force =     0.00132663   -0.00145324   -0.00266582
     atom    4 type  1   force =    -0.00121626    0.00140085    0.00280783
     atom    5 type  2   force =     0.00000671   -0.00000836    0.00001133

     Total force =     0.006931     Total SCF correction =     0.000112


     Computing stress (Cartesian axis) and pressure

          total   stress  (Ry/bohr**3)                   (kbar)     P=      -12.38
  -0.00007323  -0.00000154   0.00001184          -10.77       -0.23        1.74
  -0.00000154  -0.00009333  -0.00000073           -0.23      -13.73       -0.11
   0.00001184  -0.00000073  -0.00008591            1.74       -0.11      -12.64


     Writing all to output data dir /home/tenant3/nexus-mat/dft/runs/dft-static-v3-worker-02/jobs/Pd-Rh-01_Pd4Rh/tmp/Pd-Rh-01_Pd4Rh.save/ :
     XML data file, charge density, pseudopotentials, collected wavefunctions

     init_run     :     67.81s CPU     68.23s WALL (       1 calls)
     electrons    :   2218.11s CPU   2649.83s WALL (       1 calls)
     forces       :     64.27s CPU     64.28s WALL (       1 calls)
     stress       :    242.40s CPU    242.48s WALL (       1 calls)

     Called by init_run:
     wfcinit      :     67.27s CPU     67.63s WALL (       1 calls)
     potinit      :      0.25s CPU      0.29s WALL (       1 calls)
     hinit0       :      0.14s CPU      0.15s WALL (       1 calls)

     Called by electrons:
     c_bands      :   2049.96s CPU   2451.41s WALL (      12 calls)
     sum_band     :    165.76s CPU    195.57s WALL (      12 calls)
     v_of_rho     :      2.07s CPU      2.49s WALL (      12 calls)
     mix_rho      :      0.29s CPU      0.33s WALL (      12 calls)

     Called by c_bands:
     init_us_2    :     14.12s CPU     16.31s WALL (    3888 calls)
     cegterg      :   2014.99s CPU   2409.26s WALL (    1728 calls)

     Called by *egterg:
     cdiaghg      :     12.17s CPU     14.86s WALL (    4856 calls)
     h_psi        :   1274.50s CPU   1502.35s WALL (    5144 calls)
     g_psi        :      2.83s CPU      3.26s WALL (    3272 calls)

     Called by h_psi:
     h_psi:calbec :    327.03s CPU    372.79s WALL (    5144 calls)
     vloc_psi     :    687.37s CPU    823.90s WALL (    5144 calls)
                                        0.00s GPU  (    5144 calls)
     add_vuspsi   :    256.41s CPU    296.52s WALL (    5144 calls)

     General routines
     calbec       :    619.47s CPU    665.26s WALL (    7592 calls)
     fft          :      1.22s CPU      1.35s WALL (     150 calls)
     ffts         :      0.05s CPU      0.06s WALL (      24 calls)
     fftw         :    734.65s CPU    885.30s WALL (  502244 calls)
     interpolate  :      0.15s CPU      0.17s WALL (      12 calls)


     PWSCF        :  43m13.17s CPU  50m25.59s WALL


   This run was terminated on:  15:17:53  20Jul2026            

=------------------------------------------------------------------------------=
   JOB DONE.
=------------------------------------------------------------------------------=
