
     Program PWSCF v.7.5 starts on 21Jul2026 at  5:12:39 

     This program is part of the open-source Quantum ESPRESSO suite
     for quantum simulation of materials; please cite
         "P. Giannozzi et al., J. Phys.:Condens. Matter 21 395502 (2009);
         "P. Giannozzi et al., J. Phys.:Condens. Matter 29 465901 (2017);
         "P. Giannozzi et al., J. Chem. Phys. 152 154105 (2020);
          URL http://www.quantum-espresso.org", 
     in publications or presentations arising from this work. More details at
     http://www.quantum-espresso.org/quote

     Serial multi-threaded version, running on    1 processor cores
     5799 MiB available memory on the printing compute node when the environment starts

     Reading input from /home/tenant3/nexus-mat/dft/runs/dft-paper-worker-02/jobs/Pt-Rh-04_Pt3Rh7/input.in

     Current dimensions of program PWSCF are:
     Max number of different atomic species (ntypx) = 10
     Max number of k-points (npk) =  40000
     Max angular momentum in pseudopotentials (lmaxx) =  4
     file Pt.pbe-spfn-rrkjus_psl.1.0.0.UPF: wavefunction(s)  5P renormalized


     G-vector sticks info
     --------------------
     sticks:   dense  smooth     PW     G-vecs:    dense   smooth      PW
     Sum        5359    2677    741               438863   155169   22635

     Using Slab Decomposition



     bravais-lattice index     =            0
     lattice parameter (alat)  =       7.3171  a.u.
     unit-cell volume          =     995.5209 (a.u.)^3
     number of atoms/cell      =           10
     number of atomic types    =            2
     number of electrons       =       215.00
     number of Kohn-Sham states=          130
     kinetic-energy cutoff     =     110.0000  Ry
     charge density cutoff     =     880.0000  Ry
     scf convergence threshold =      1.0E-08
     mixing beta               =       0.3000
     number of iterations used =            8  plain     mixing
     Exchange-correlation= PBE
                           (   1   4   3   4   0   0   0)

     celldm(1)=   7.317056  celldm(2)=   0.000000  celldm(3)=   0.000000
     celldm(4)=   0.000000  celldm(5)=   0.000000  celldm(6)=   0.000000

     crystal axes: (cart. coord. in units of alat)
               a(1) = (   0.964034   0.000000  -0.265779 )  
               a(2) = (  -0.074297   1.400437  -0.270054 )  
               a(3) = (   0.000000   0.000000   1.882285 )  

     reciprocal axes: (cart. coord. in units 2 pi/alat)
               b(1) = (  1.037308  0.055032 -0.000000 )  
               b(2) = ( -0.000000  0.714063  0.000000 )  
               b(3) = (  0.146468  0.110218  0.531269 )  


     PseudoPot. # 1 for Pt read from file:
     /home/tenant3/nexus-mat/dft/pseudo/SSSP_1.3.0_PBE_precision/Pt.pbe-spfn-rrkjus_psl.1.0.0.UPF
     MD5 check sum: ed006ba81d2b6b3b17616bb61ae12f04
     Pseudo is Ultrasoft + core correction, Zval = 32.0
     Generated using "atomic" code by A. Dal Corso  v.5.1
     Using radial grid of 1277 points,  8 beta functions with: 
                l(1) =   0
                l(2) =   0
                l(3) =   1
                l(4) =   1
                l(5) =   2
                l(6) =   2
                l(7) =   3
                l(8) =   3
     Q(r) pseudized with 0 coefficients 


     PseudoPot. # 2 for Rh read from file:
     /home/tenant3/nexus-mat/dft/pseudo/SSSP_1.3.0_PBE_precision/Rh_ONCV_PBE-1.0.oncvpsp.upf
     MD5 check sum: ba07c69523b14cacd10683cd4c4284c1
     Pseudo is Norm-conserving, Zval = 17.0
     Generated using ONCVPSP code by D. R. Hamann
     Using radial grid of 1442 points,  6 beta functions with: 
                l(1) =   0
                l(2) =   0
                l(3) =   1
                l(4) =   1
                l(5) =   2
                l(6) =   2

     atomic species   valence    mass     pseudopotential
     Pt               32.00   195.08400     Pt( 1.00)
     Rh               17.00   102.90549     Rh( 1.00)

     No symmetry found



   Cartesian axes

     site n.     atom                  positions (alat units)
         1        Pt     tau(   1) = (  -0.0373100   1.0699299  -0.0869574  )
         2        Pt     tau(   2) = (   0.7399336   0.9282027   0.8517467  )
         3        Pt     tau(   3) = (  -0.0014326   0.3675163   0.0434648  )
         4        Rh     tau(   4) = (   0.1840082   0.5051410   0.7170195  )
         5        Rh     tau(   5) = (   0.1466537   1.2113951   0.5811386  )
         6        Rh     tau(   6) = (   0.3311580   1.3505008   1.2502950  )
         7        Rh     tau(   7) = (   0.7768605   0.2280469   0.9860494  )
         8        Rh     tau(   8) = (   0.5559766   0.7885556   0.1844025  )
         9        Rh     tau(   9) = (   0.5948381   0.0907926   0.3258088  )
        10        Rh     tau(  10) = (   0.3686579   0.6451203   1.3865583  )

     number of k points=    70  Marzari-Vanderbilt smearing, width (Ry)=  0.0200
                       cart. coord. in units 2pi/alat
        k(    1) = (   0.0183085   0.0137773   0.0664086), wk =   0.0285714
        k(    2) = (   0.0549256   0.0413319   0.1992259), wk =   0.0285714
        k(    3) = (   0.0183085   0.1565899   0.0664086), wk =   0.0285714
        k(    4) = (   0.0549256   0.1841445   0.1992259), wk =   0.0285714
        k(    5) = (  -0.0549256   0.1014807  -0.1992259), wk =   0.0285714
        k(    6) = (  -0.0183085   0.1290353  -0.0664086), wk =   0.0285714
        k(    7) = (   0.0183085   0.2994025   0.0664086), wk =   0.0285714
        k(    8) = (   0.0549256   0.3269570   0.1992259), wk =   0.0285714
        k(    9) = (  -0.0549256   0.2442933  -0.1992259), wk =   0.0285714
        k(   10) = (  -0.0183085   0.2718479  -0.0664086), wk =   0.0285714
        k(   11) = (   0.1664954   0.0216390   0.0664086), wk =   0.0285714
        k(   12) = (   0.2031125   0.0491936   0.1992259), wk =   0.0285714
        k(   13) = (   0.0932612  -0.0334701  -0.1992259), wk =   0.0285714
        k(   14) = (   0.1298783  -0.0059156  -0.0664086), wk =   0.0285714
        k(   15) = (   0.1664954   0.1644516   0.0664086), wk =   0.0285714
        k(   16) = (   0.2031125   0.1920062   0.1992259), wk =   0.0285714
        k(   17) = (   0.0932612   0.1093425  -0.1992259), wk =   0.0285714
        k(   18) = (   0.1298783   0.1368970  -0.0664086), wk =   0.0285714
        k(   19) = (   0.1664954   0.3072642   0.0664086), wk =   0.0285714
        k(   20) = (   0.2031125   0.3348188   0.1992259), wk =   0.0285714
        k(   21) = (   0.0932612   0.2521550  -0.1992259), wk =   0.0285714
        k(   22) = (   0.1298783   0.2797096  -0.0664086), wk =   0.0285714
        k(   23) = (   0.1664954  -0.2639861   0.0664086), wk =   0.0285714
        k(   24) = (   0.2031125  -0.2364316   0.1992259), wk =   0.0285714
        k(   25) = (   0.0932612  -0.3190953  -0.1992259), wk =   0.0285714
        k(   26) = (   0.1298783  -0.2915407  -0.0664086), wk =   0.0285714
        k(   27) = (   0.1664954  -0.1211736   0.0664086), wk =   0.0285714
        k(   28) = (   0.2031125  -0.0936190   0.1992259), wk =   0.0285714
        k(   29) = (   0.0932612  -0.1762827  -0.1992259), wk =   0.0285714
        k(   30) = (   0.1298783  -0.1487281  -0.0664086), wk =   0.0285714
        k(   31) = (   0.3146822   0.0295008   0.0664086), wk =   0.0285714
        k(   32) = (   0.3512993   0.0570553   0.1992259), wk =   0.0285714
        k(   33) = (   0.2414481  -0.0256084  -0.1992259), wk =   0.0285714
        k(   34) = (   0.2780652   0.0019462  -0.0664086), wk =   0.0285714
        k(   35) = (   0.3146822   0.1723133   0.0664086), wk =   0.0285714
        k(   36) = (   0.3512993   0.1998679   0.1992259), wk =   0.0285714
        k(   37) = (   0.2414481   0.1172042  -0.1992259), wk =   0.0285714
        k(   38) = (   0.2780652   0.1447588  -0.0664086), wk =   0.0285714
        k(   39) = (   0.3146822   0.3151259   0.0664086), wk =   0.0285714
        k(   40) = (   0.3512993   0.3426805   0.1992259), wk =   0.0285714
        k(   41) = (   0.2414481   0.2600168  -0.1992259), wk =   0.0285714
        k(   42) = (   0.2780652   0.2875714  -0.0664086), wk =   0.0285714
        k(   43) = (   0.3146822  -0.2561244   0.0664086), wk =   0.0285714
        k(   44) = (   0.3512993  -0.2285698   0.1992259), wk =   0.0285714
        k(   45) = (   0.2414481  -0.3112336  -0.1992259), wk =   0.0285714
        k(   46) = (   0.2780652  -0.2836790  -0.0664086), wk =   0.0285714
        k(   47) = (   0.3146822  -0.1133118   0.0664086), wk =   0.0285714
        k(   48) = (   0.3512993  -0.0857572   0.1992259), wk =   0.0285714
        k(   49) = (   0.2414481  -0.1684210  -0.1992259), wk =   0.0285714
        k(   50) = (   0.2780652  -0.1408664  -0.0664086), wk =   0.0285714
        k(   51) = (   0.4628691   0.0373625   0.0664086), wk =   0.0285714
        k(   52) = (   0.4994862   0.0649171   0.1992259), wk =   0.0285714
        k(   53) = (   0.3896349  -0.0177467  -0.1992259), wk =   0.0285714
        k(   54) = (   0.4262520   0.0098079  -0.0664086), wk =   0.0285714
        k(   55) = (   0.4628691   0.1801751   0.0664086), wk =   0.0285714
        k(   56) = (   0.4994862   0.2077297   0.1992259), wk =   0.0285714
        k(   57) = (   0.3896349   0.1250659  -0.1992259), wk =   0.0285714
        k(   58) = (   0.4262520   0.1526205  -0.0664086), wk =   0.0285714
        k(   59) = (   0.4628691   0.3229877   0.0664086), wk =   0.0285714
        k(   60) = (   0.4994862   0.3505422   0.1992259), wk =   0.0285714
        k(   61) = (   0.3896349   0.2678785  -0.1992259), wk =   0.0285714
        k(   62) = (   0.4262520   0.2954331  -0.0664086), wk =   0.0285714
        k(   63) = (   0.4628691  -0.2482627   0.0664086), wk =   0.0285714
        k(   64) = (   0.4994862  -0.2207081   0.1992259), wk =   0.0285714
        k(   65) = (   0.3896349  -0.3033718  -0.1992259), wk =   0.0285714
        k(   66) = (   0.4262520  -0.2758172  -0.0664086), wk =   0.0285714
        k(   67) = (   0.4628691  -0.1054501   0.0664086), wk =   0.0285714
        k(   68) = (   0.4994862  -0.0778955   0.1992259), wk =   0.0285714
        k(   69) = (   0.3896349  -0.1605592  -0.1992259), wk =   0.0285714
        k(   70) = (   0.4262520  -0.1330047  -0.0664086), wk =   0.0285714

     Dense  grid:   438863 G-vectors     FFT dimensions: (  72, 100, 135)

     Smooth grid:   155169 G-vectors     FFT dimensions: (  50,  72,  96)

     Estimated max dynamical RAM per process >       6.80 GB

     Initial potential from superposition of free atoms

     starting charge     214.9965, renormalised to     215.0000
     Starting wfcs are  121 randomized atomic wfcs +    9 random wfcs

     total cpu time spent up to now is     1889.0 secs

     Self-consistent Calculation

     iteration #  1     ecut=   110.00 Ry     beta= 0.30
     Davidson diagonalization with overlap
     ethr =  1.00E-02,  avg # of iterations =  3.0

     total cpu time spent up to now is     8399.9 secs

     total energy              =   -4615.78756157 Ry
     estimated scf accuracy    <       3.02076714 Ry

     iteration #  2     ecut=   110.00 Ry     beta= 0.30
     Davidson diagonalization with overlap
     ethr =  1.41E-03,  avg # of iterations =  2.6

     total cpu time spent up to now is    15012.1 secs

     total energy              =   -4615.78019662 Ry
     estimated scf accuracy    <      21.56325378 Ry

     iteration #  3     ecut=   110.00 Ry     beta= 0.30
     Davidson diagonalization with overlap
     ethr =  1.41E-03,  avg # of iterations =  2.1

     total cpu time spent up to now is    21018.8 secs

     total energy              =   -4616.77489687 Ry
     estimated scf accuracy    <       5.13264105 Ry

     iteration #  4     ecut=   110.00 Ry     beta= 0.30
     Davidson diagonalization with overlap
     ethr =  1.41E-03,  avg # of iterations =  1.0

     total cpu time spent up to now is    25771.3 secs

     total energy              =   -4617.03813154 Ry
     estimated scf accuracy    <       1.55041163 Ry

     iteration #  5     ecut=   110.00 Ry     beta= 0.30
     Davidson diagonalization with overlap
     ethr =  7.21E-04,  avg # of iterations =  1.0

     total cpu time spent up to now is    30522.9 secs

     total energy              =   -4617.06596768 Ry
     estimated scf accuracy    <       0.27056133 Ry

     iteration #  6     ecut=   110.00 Ry     beta= 0.30
     Davidson diagonalization with overlap
     ethr =  1.26E-04,  avg # of iterations =  1.0

     total cpu time spent up to now is    35309.0 secs

     total energy              =   -4617.04553644 Ry
     estimated scf accuracy    <       0.15005056 Ry

     iteration #  7     ecut=   110.00 Ry     beta= 0.30
     Davidson diagonalization with overlap
     ethr =  6.98E-05,  avg # of iterations =  1.7

     total cpu time spent up to now is    40503.4 secs

     total energy              =   -4617.05543828 Ry
     estimated scf accuracy    <       0.01560934 Ry

     iteration #  8     ecut=   110.00 Ry     beta= 0.30
     Davidson diagonalization with overlap
     ethr =  7.26E-06,  avg # of iterations =  4.3

     total cpu time spent up to now is    45939.0 secs

     total energy              =   -4617.05531154 Ry
     estimated scf accuracy    <       0.01580150 Ry

     iteration #  9     ecut=   110.00 Ry     beta= 0.30
     Davidson diagonalization with overlap
     ethr =  7.26E-06,  avg # of iterations =  1.1

     total cpu time spent up to now is    50082.7 secs

     total energy              =   -4617.05588010 Ry
     estimated scf accuracy    <       0.00889454 Ry

     iteration # 10     ecut=   110.00 Ry     beta= 0.30
     Davidson diagonalization with overlap
     ethr =  4.14E-06,  avg # of iterations =  1.2

     total cpu time spent up to now is    53650.6 secs

     total energy              =   -4617.05624922 Ry
     estimated scf accuracy    <       0.00137739 Ry

     iteration # 11     ecut=   110.00 Ry     beta= 0.30
     Davidson diagonalization with overlap
     ethr =  6.41E-07,  avg # of iterations =  1.7

     total cpu time spent up to now is    57096.1 secs

     total energy              =   -4617.05636018 Ry
     estimated scf accuracy    <       0.00165076 Ry

     iteration # 12     ecut=   110.00 Ry     beta= 0.30
     Davidson diagonalization with overlap
     ethr =  6.41E-07,  avg # of iterations =  1.0

     total cpu time spent up to now is    59998.4 secs

     total energy              =   -4617.05644889 Ry
     estimated scf accuracy    <       0.00026501 Ry

     iteration # 13     ecut=   110.00 Ry     beta= 0.30
     Davidson diagonalization with overlap
     ethr =  1.23E-07,  avg # of iterations =  1.2

     total cpu time spent up to now is    63326.2 secs

     total energy              =   -4617.05645664 Ry
     estimated scf accuracy    <       0.00047094 Ry

     iteration # 14     ecut=   110.00 Ry     beta= 0.30
     Davidson diagonalization with overlap
     ethr =  1.23E-07,  avg # of iterations =  1.0

     total cpu time spent up to now is    66557.8 secs

     total energy              =   -4617.05648391 Ry
     estimated scf accuracy    <       0.00004826 Ry

     iteration # 15     ecut=   110.00 Ry     beta= 0.30
     Davidson diagonalization with overlap
     ethr =  2.24E-08,  avg # of iterations =  1.1

     total cpu time spent up to now is    69855.9 secs

     total energy              =   -4617.05647969 Ry
     estimated scf accuracy    <       0.00024423 Ry

     iteration # 16     ecut=   110.00 Ry     beta= 0.30
     Davidson diagonalization with overlap
     ethr =  2.24E-08,  avg # of iterations =  1.0

     total cpu time spent up to now is    72672.9 secs

     total energy              =   -4617.05648895 Ry
     estimated scf accuracy    <       0.00000441 Ry

     iteration # 17     ecut=   110.00 Ry     beta= 0.30
     Davidson diagonalization with overlap
     ethr =  2.05E-09,  avg # of iterations =  2.0

     total cpu time spent up to now is    75962.4 secs

     total energy              =   -4617.05648891 Ry
     estimated scf accuracy    <       0.00001139 Ry

     iteration # 18     ecut=   110.00 Ry     beta= 0.30
     Davidson diagonalization with overlap
     ethr =  2.05E-09,  avg # of iterations =  1.0

     total cpu time spent up to now is    78723.8 secs

     total energy              =   -4617.05648948 Ry
     estimated scf accuracy    <       0.00000289 Ry

     iteration # 19     ecut=   110.00 Ry     beta= 0.30
     Davidson diagonalization with overlap
     ethr =  1.34E-09,  avg # of iterations =  1.0

     total cpu time spent up to now is    81494.4 secs

     total energy              =   -4617.05648951 Ry
     estimated scf accuracy    <       0.00000212 Ry

     iteration # 20     ecut=   110.00 Ry     beta= 0.30
     Davidson diagonalization with overlap
     ethr =  9.84E-10,  avg # of iterations =  1.0

     total cpu time spent up to now is    84257.8 secs

     total energy              =   -4617.05648967 Ry
     estimated scf accuracy    <       0.00000088 Ry

     iteration # 21     ecut=   110.00 Ry     beta= 0.30
     Davidson diagonalization with overlap
     ethr =  4.10E-10,  avg # of iterations =  1.0

     total cpu time spent up to now is    87025.0 secs

     total energy              =   -4617.05648970 Ry
     estimated scf accuracy    <       0.00000022 Ry

     iteration # 22     ecut=   110.00 Ry     beta= 0.30
     Davidson diagonalization with overlap
     ethr =  1.04E-10,  avg # of iterations =  1.0

     total cpu time spent up to now is    89797.5 secs

     total energy              =   -4617.05648971 Ry
     estimated scf accuracy    <       0.00000017 Ry

     iteration # 23     ecut=   110.00 Ry     beta= 0.30
     Davidson diagonalization with overlap
     ethr =  7.78E-11,  avg # of iterations =  1.0

     total cpu time spent up to now is    92568.7 secs

     total energy              =   -4617.05648971 Ry
     estimated scf accuracy    <       0.00000007 Ry

     iteration # 24     ecut=   110.00 Ry     beta= 0.30
     Davidson diagonalization with overlap
     ethr =  3.43E-11,  avg # of iterations =  1.0

     total cpu time spent up to now is    95337.8 secs

     total energy              =   -4617.05648972 Ry
     estimated scf accuracy    <       0.00000007 Ry

     iteration # 25     ecut=   110.00 Ry     beta= 0.30
     Davidson diagonalization with overlap
     ethr =  3.23E-11,  avg # of iterations =  1.0

     total cpu time spent up to now is    98108.3 secs

     total energy              =   -4617.05648971 Ry
     estimated scf accuracy    <       0.00000008 Ry

     iteration # 26     ecut=   110.00 Ry     beta= 0.30
     Davidson diagonalization with overlap
     ethr =  3.23E-11,  avg # of iterations =  1.0

     total cpu time spent up to now is   100876.8 secs

     total energy              =   -4617.05648972 Ry
     estimated scf accuracy    <       0.00000003 Ry

     iteration # 27     ecut=   110.00 Ry     beta= 0.30
     Davidson diagonalization with overlap
     ethr =  1.16E-11,  avg # of iterations =  1.0

     total cpu time spent up to now is   103647.9 secs

     End of self-consistent calculation

          k = 0.0183 0.0138 0.0664 ( 19384 PWs)   bands (ev):

   -75.7716 -75.7515 -75.7075 -55.6535 -55.6045 -55.5933 -55.5801 -55.5476
   -55.5371 -55.5210 -44.1910 -44.1780 -44.1762 -44.1731 -44.1686 -44.1639
   -44.1633 -44.1601 -44.1547 -44.1536 -44.1520 -44.1416 -44.1407 -44.1376
   -44.1218 -44.1091 -44.1070 -44.1059 -44.0946 -44.0939 -44.0896 -29.9798
   -29.9195 -29.8884 -29.8680 -29.8621 -29.8467 -29.7915 -29.7882 -29.7237
   -23.6882 -23.6536 -23.6358 -23.5776 -23.5534 -23.5470 -23.5135 -23.4935
   -23.4511 -23.4499 -23.4191 -23.4187 -23.3882 -23.3824 -23.3497 -23.3471
   -23.2987 -23.2781 -23.2741 -23.2441 -23.2345  14.5955  16.7858  16.8929
    17.1613  17.2417  17.2962  17.4878  17.5492  17.6526  17.8335  18.0053
    18.2176  18.3064  18.4898  18.5413  18.6353  18.8201  19.2019  19.3095
    19.3649  19.6079  19.7566  19.9229  19.9408  20.1073  20.3691  20.6306
    20.7251  20.8844  20.9595  21.1396  21.3108  21.5412  21.8020  21.8624
    21.9724  22.0279  22.1574  22.1770  22.2961  22.4474  22.6380  22.9106
    23.0180  23.1362  23.2425  23.2791  23.3858  23.5277  23.5589  23.6348
    23.8234  24.7117  25.3526  25.6289  25.8445  25.8745  26.0412  28.1543
    30.3731  30.6166  32.6517  33.3521  34.1619  34.4943  35.0877  35.2678
    35.5038  35.5895

          k = 0.0549 0.0413 0.1992 ( 19414 PWs)   bands (ev):

   -75.7716 -75.7515 -75.7075 -55.6525 -55.6059 -55.5936 -55.5801 -55.5471
   -55.5370 -55.5209 -44.1910 -44.1780 -44.1762 -44.1731 -44.1686 -44.1639
   -44.1633 -44.1601 -44.1547 -44.1536 -44.1520 -44.1416 -44.1407 -44.1376
   -44.1218 -44.1091 -44.1070 -44.1059 -44.0946 -44.0939 -44.0896 -29.9798
   -29.9203 -29.8884 -29.8681 -29.8619 -29.8466 -29.7914 -29.7876 -29.7237
   -23.6898 -23.6543 -23.6360 -23.5850 -23.5732 -23.5481 -23.5113 -23.4808
   -23.4499 -23.4272 -23.4187 -23.3919 -23.3887 -23.3794 -23.3529 -23.3463
   -23.3176 -23.2958 -23.2723 -23.2449 -23.2343  15.0154  16.0886  16.8336
    16.9395  17.1779  17.2141  17.2411  17.4884  17.7845  17.9997  18.0055
    18.2682  18.5508  18.5780  18.7421  18.9933  19.0127  19.2131  19.3027
    19.4764  19.5160  19.6353  19.7712  20.0748  20.1260  20.2788  20.4636
    20.5000  20.6505  20.8732  21.1466  21.4363  21.5933  21.8399  21.8628
    21.9782  22.0435  22.0991  22.1510  22.3873  22.4415  22.6422  22.7645
    23.0189  23.1393  23.3389  23.3872  23.4876  23.5466  23.5546  23.7925
    23.8483  25.3341  25.6249  25.8185  25.8742  26.0317  26.3345  26.4998
    28.4582  32.7134  33.1888  33.7604  34.1624  34.7961  35.1974  35.2028
    35.2829  35.3841

          k = 0.0183 0.1566 0.0664 ( 19391 PWs)   bands (ev):

   -75.7716 -75.7513 -75.7078 -55.6507 -55.6060 -55.5964 -55.5783 -55.5460
   -55.5368 -55.5231 -44.1910 -44.1780 -44.1762 -44.1731 -44.1686 -44.1639
   -44.1633 -44.1601 -44.1547 -44.1536 -44.1520 -44.1416 -44.1407 -44.1376
   -44.1218 -44.1091 -44.1070 -44.1059 -44.0946 -44.0939 -44.0896 -29.9564
   -29.9193 -29.8876 -29.8679 -29.8618 -29.8455 -29.7927 -29.7886 -29.7478
   -23.6720 -23.6465 -23.6181 -23.5691 -23.5548 -23.5327 -23.5144 -23.4842
   -23.4801 -23.4383 -23.4230 -23.4022 -23.3931 -23.3811 -23.3621 -23.3458
   -23.2977 -23.2871 -23.2781 -23.2661 -23.2559  14.9049  16.8545  16.9993
    17.1458  17.3494  17.3670  17.4841  17.5579  17.7758  17.9232  18.1124
    18.3624  18.3789  18.5384  18.6233  18.6490  18.7755  19.0329  19.2243
    19.2739  19.4592  19.7066  19.8278  20.0153  20.1639  20.1921  20.3248
    20.4380  21.0262  21.0781  21.2672  21.2774  21.5281  21.6962  21.8436
    21.8843  21.9370  22.0447  22.0976  22.1560  22.7958  22.8725  23.0426
    23.0851  23.1359  23.1497  23.2620  23.3803  23.3851  23.4364  23.4831
    23.6378  23.8227  23.9636  24.5070  25.0822  27.8353  28.2297  28.3495
    30.5446  31.0684  33.0929  33.6512  33.9136  34.0886  34.3264  34.5523
    34.6896  35.4729

          k = 0.0549 0.1841 0.1992 ( 19408 PWs)   bands (ev):

   -75.7716 -75.7513 -75.7078 -55.6498 -55.6067 -55.5971 -55.5782 -55.5464
   -55.5361 -55.5228 -44.1910 -44.1780 -44.1762 -44.1731 -44.1686 -44.1639
   -44.1633 -44.1601 -44.1547 -44.1536 -44.1520 -44.1416 -44.1407 -44.1376
   -44.1218 -44.1091 -44.1070 -44.1059 -44.0946 -44.0939 -44.0896 -29.9564
   -29.9201 -29.8876 -29.8680 -29.8617 -29.8455 -29.7926 -29.7880 -29.7478
   -23.6740 -23.6472 -23.6205 -23.5877 -23.5553 -23.5318 -23.5123 -23.4801
   -23.4748 -23.4295 -23.4003 -23.3958 -23.3834 -23.3806 -23.3553 -23.3485
   -23.3284 -23.2956 -23.2763 -23.2657 -23.2593  15.3595  16.1555  16.9441
    17.0612  17.2446  17.3235  17.3381  17.6007  17.7944  17.8881  18.1652
    18.2968  18.5665  18.7561  18.8955  18.9077  18.9708  19.0405  19.1371
    19.2255  19.3210  19.4148  19.6027  19.8625  20.4265  20.4486  20.5354
    20.6422  20.6467  21.0700  21.1056  21.3756  21.4157  21.6278  21.7406
    21.7936  22.1445  22.1917  22.3299  22.3981  22.4895  22.7661  22.8600
    22.9232  22.9882  23.0056  23.0863  23.1648  23.3885  23.5906  23.6166
    23.6409  23.7654  23.9584  25.3177  26.9743  27.2328  27.6591  28.2275
    28.4457  33.2174  33.2673  33.4822  33.9179  34.0263  34.4147  34.5593
    34.7187  34.8633

          k =-0.0549 0.1015-0.1992 ( 19389 PWs)   bands (ev):

   -75.7716 -75.7513 -75.7078 -55.6500 -55.6062 -55.5969 -55.5783 -55.5471
   -55.5363 -55.5222 -44.1910 -44.1780 -44.1762 -44.1731 -44.1686 -44.1639
   -44.1633 -44.1601 -44.1547 -44.1536 -44.1520 -44.1416 -44.1407 -44.1376
   -44.1218 -44.1091 -44.1070 -44.1059 -44.0946 -44.0939 -44.0896 -29.9564
   -29.9200 -29.8876 -29.8680 -29.8618 -29.8455 -29.7926 -29.7880 -29.7478
   -23.6735 -23.6471 -23.6235 -23.5846 -23.5572 -23.5234 -23.5131 -23.4802
   -23.4771 -23.4349 -23.4062 -23.3944 -23.3896 -23.3805 -23.3511 -23.3466
   -23.3113 -23.3042 -23.2771 -23.2675 -23.2593  15.1609  16.4442  17.0307
    17.1270  17.3068  17.3803  17.4442  17.6263  17.6595  17.9122  18.0883
    18.1677  18.3311  18.3992  18.7762  18.7861  18.9677  19.1220  19.1753
    19.2763  19.5176  19.6492  19.7835  20.0127  20.3530  20.3628  20.5054
    20.6074  20.8101  21.1547  21.2463  21.4957  21.6354  21.7352  21.8490
    21.8525  22.0545  22.1576  22.2597  22.2865  22.3962  22.4674  22.4867
    22.5473  22.5504  22.8011  23.0380  23.0928  23.1368  23.7287  23.7925
    23.8440  23.8751  23.9356  26.1845  27.2991  27.3777  27.5398  28.1088
    29.1680  32.3913  32.4244  33.3809  33.8217  33.9024  34.3629  34.6641
    34.8890  34.9164

          k =-0.0183 0.1290-0.0664 ( 19377 PWs)   bands (ev):

   -75.7716 -75.7513 -75.7078 -55.6509 -55.6055 -55.5962 -55.5784 -55.5466
   -55.5370 -55.5225 -44.1910 -44.1780 -44.1762 -44.1731 -44.1686 -44.1639
   -44.1633 -44.1601 -44.1547 -44.1536 -44.1520 -44.1416 -44.1407 -44.1376
   -44.1218 -44.1091 -44.1070 -44.1059 -44.0946 -44.0939 -44.0896 -29.9564
   -29.9192 -29.8876 -29.8679 -29.8619 -29.8456 -29.7927 -29.7886 -29.7478
   -23.6714 -23.6463 -23.6223 -23.5648 -23.5544 -23.5189 -23.5152 -23.4961
   -23.4802 -23.4508 -23.4234 -23.3983 -23.3871 -23.3853 -23.3571 -23.3439
   -23.3026 -23.2798 -23.2789 -23.2697 -23.2559  14.8137  16.9623  17.1349
    17.3382  17.3722  17.4505  17.6271  17.7318  17.7589  17.8153  17.9659
    17.9661  18.2401  18.3892  18.5227  18.5393  18.6672  19.0116  19.1103
    19.5185  19.6477  19.7772  19.8420  20.0287  20.0461  20.2364  20.7431
    21.1169  21.1962  21.2538  21.2825  21.3917  21.4554  21.5820  21.6579
    21.7314  21.7544  21.8453  22.0320  22.2426  22.5155  22.5452  22.5958
    22.6592  22.7019  22.7942  23.2249  23.5045  23.5649  23.7039  23.7321
    23.7835  23.8156  23.9478  24.4106  26.5644  27.4406  28.3634  29.0305
    30.2328  31.3918  32.4959  32.9416  33.9335  33.9492  34.2503  34.5313
    34.6860  34.7414

          k = 0.0183 0.2994 0.0664 ( 19376 PWs)   bands (ev):

   -75.7716 -75.7509 -75.7082 -55.6454 -55.6106 -55.5984 -55.5763 -55.5440
   -55.5355 -55.5270 -44.1910 -44.1780 -44.1762 -44.1731 -44.1686 -44.1639
   -44.1633 -44.1601 -44.1547 -44.1536 -44.1520 -44.1416 -44.1407 -44.1375
   -44.1218 -44.1091 -44.1070 -44.1059 -44.0946 -44.0939 -44.0896 -29.9190
   -29.8968 -29.8860 -29.8678 -29.8615 -29.8436 -29.8089 -29.7947 -29.7893
   -23.6395 -23.6315 -23.6014 -23.5624 -23.5316 -23.5281 -23.4999 -23.4959
   -23.4691 -23.4387 -23.4184 -23.4022 -23.3892 -23.3805 -23.3649 -23.3449
   -23.3333 -23.3273 -23.2963 -23.2883 -23.2652  15.6500  16.5226  17.1259
    17.3732  17.5523  17.6143  17.6843  17.7703  17.9894  18.0442  18.0956
    18.2223  18.2296  18.4003  18.4530  18.8920  18.9172  19.0501  19.1661
    19.3268  19.3794  19.4118  19.5248  19.9816  20.3896  20.5226  20.5288
    20.6250  20.7414  20.9387  21.0064  21.2866  21.3630  21.5930  21.7154
    21.7720  21.8235  21.8662  21.9640  22.1895  22.3380  22.4304  22.6075
    22.6825  22.7866  22.8045  22.8279  22.9172  22.9748  23.5176  23.6337
    23.6794  23.7167  23.7652  23.9509  25.5655  29.6797  30.3252  30.5909
    30.9775  32.0541  32.0553  32.2104  32.4794  33.1676  33.3731  33.8712
    34.3029  35.5707

          k = 0.0549 0.3270 0.1992 ( 19403 PWs)   bands (ev):

   -75.7716 -75.7509 -75.7082 -55.6447 -55.6103 -55.5996 -55.5762 -55.5462
   -55.5335 -55.5266 -44.1910 -44.1780 -44.1762 -44.1731 -44.1686 -44.1639
   -44.1633 -44.1601 -44.1547 -44.1536 -44.1520 -44.1416 -44.1407 -44.1375
   -44.1218 -44.1091 -44.1070 -44.1059 -44.0946 -44.0939 -44.0896 -29.9196
   -29.8969 -29.8860 -29.8678 -29.8616 -29.8436 -29.8089 -29.7947 -29.7886
   -23.6440 -23.6324 -23.6104 -23.5692 -23.5306 -23.5281 -23.4975 -23.4857
   -23.4658 -23.4309 -23.4103 -23.4010 -23.3745 -23.3685 -23.3674 -23.3558
   -23.3342 -23.3299 -23.3051 -23.2866 -23.2807  16.0461  16.4589  16.8502
    17.3624  17.4073  17.5407  17.6994  17.8720  17.9389  17.9656  18.0703
    18.2906  18.3689  18.4327  18.5572  18.6739  18.7104  18.7693  18.9674
    19.1394  19.2939  19.8294  19.9344  20.0085  20.3731  20.7721  20.8917
    20.9020  20.9212  20.9873  21.0341  21.1204  21.2158  21.3541  21.5673
    21.6112  21.8638  21.9210  21.9982  22.0764  22.1812  22.2102  22.4129
    22.4579  22.6623  22.7815  22.9229  22.9880  23.1588  23.2234  23.3158
    23.3635  23.4804  23.8521  25.7047  27.8382  28.3318  29.2217  29.8395
    30.6795  31.6266  31.7442  32.5894  33.1420  33.6900  33.9559  34.0188
    34.4432  34.5805

          k =-0.0549 0.2443-0.1992 ( 19398 PWs)   bands (ev):

   -75.7716 -75.7509 -75.7082 -55.6449 -55.6100 -55.5995 -55.5763 -55.5466
   -55.5340 -55.5260 -44.1910 -44.1780 -44.1762 -44.1731 -44.1686 -44.1639
   -44.1633 -44.1601 -44.1547 -44.1536 -44.1520 -44.1416 -44.1407 -44.1375
   -44.1218 -44.1091 -44.1070 -44.1059 -44.0946 -44.0939 -44.0896 -29.9195
   -29.8969 -29.8859 -29.8678 -29.8616 -29.8436 -29.8089 -29.7947 -29.7886
   -23.6442 -23.6322 -23.6116 -23.5641 -23.5352 -23.5291 -23.4969 -23.4760
   -23.4700 -23.4317 -23.4121 -23.4000 -23.3988 -23.3701 -23.3541 -23.3442
   -23.3324 -23.3285 -23.3063 -23.2875 -23.2836  15.7391  16.8084  17.0237
    17.4459  17.5021  17.6538  17.7474  17.8793  17.9074  17.9781  17.9884
    18.1858  18.2382  18.2734  18.3319  18.5437  18.6037  18.6858  19.1230
    19.2024  19.2708  19.9381  20.4187  20.4207  20.5079  20.5697  20.6007
    20.6540  20.7098  21.0462  21.0572  21.1972  21.4015  21.5114  21.6164
    21.6276  21.6997  21.7826  21.8265  22.0095  22.1979  22.3186  22.3879
    22.4785  22.5541  22.7134  22.7570  22.7991  22.8713  23.0183  23.6063
    23.6490  23.6989  23.7419  25.9935  28.1720  28.6625  29.4182  29.5251
    30.3437  31.5127  31.9284  32.4893  32.8694  33.4845  33.9699  34.3799
    34.3895  34.5163

          k =-0.0183 0.2718-0.0664 ( 19381 PWs)   bands (ev):

   -75.7716 -75.7509 -75.7082 -55.6455 -55.6103 -55.5983 -55.5764 -55.5444
   -55.5359 -55.5264 -44.1910 -44.1780 -44.1762 -44.1731 -44.1686 -44.1639
   -44.1633 -44.1601 -44.1547 -44.1536 -44.1520 -44.1416 -44.1407 -44.1375
   -44.1218 -44.1091 -44.1070 -44.1059 -44.0946 -44.0939 -44.0896 -29.9189
   -29.8969 -29.8860 -29.8678 -29.8616 -29.8436 -29.8089 -29.7947 -29.7892
   -23.6398 -23.6313 -23.6037 -23.5509 -23.5396 -23.5291 -23.4993 -23.4906
   -23.4745 -23.4376 -23.4217 -23.4035 -23.4014 -23.3669 -23.3666 -23.3386
   -23.3313 -23.3297 -23.2979 -23.2892 -23.2655  15.4924  16.7054  17.2560
    17.4341  17.7188  17.7527  17.7637  17.8878  17.9272  17.9817  18.0174
    18.1491  18.2041  18.3237  18.3281  18.5132  18.5717  18.7491  18.8857
    19.4859  19.9404  19.9759  20.0987  20.1574  20.1873  20.3541  20.4461
    20.4576  20.5290  21.0276  21.1047  21.3010  21.3534  21.5319  21.8595
    21.9255  21.9605  21.9985  22.0490  22.0677  22.1062  22.1784  22.1919
    22.2914  22.3477  22.7667  22.8696  22.9442  23.2172  23.3510  23.6751
    23.8113  23.8424  23.8883  24.0536  26.1880  29.6851  30.4138  30.5183
    30.8614  31.6887  32.2065  32.5466  32.9753  33.2181  33.3903  33.3928
    34.1894  35.0594

          k = 0.1665 0.0216 0.0664 ( 19393 PWs)   bands (ev):

   -75.7716 -75.7515 -75.7075 -55.6496 -55.6045 -55.5934 -55.5823 -55.5483
   -55.5379 -55.5209 -44.1910 -44.1780 -44.1762 -44.1731 -44.1686 -44.1639
   -44.1633 -44.1601 -44.1547 -44.1536 -44.1520 -44.1416 -44.1407 -44.1376
   -44.1218 -44.1091 -44.1070 -44.1059 -44.0946 -44.0939 -44.0896 -29.9801
   -29.9200 -29.8884 -29.8687 -29.8620 -29.8473 -29.7924 -29.7879 -29.7236
   -23.6915 -23.6639 -23.6333 -23.5922 -23.5712 -23.5628 -23.5231 -23.4595
   -23.4526 -23.4278 -23.4199 -23.4086 -23.3864 -23.3734 -23.3428 -23.3405
   -23.3005 -23.2930 -23.2729 -23.2472 -23.2390  14.9197  16.6496  17.0263
    17.1959  17.3034  17.4359  17.4986  17.5461  17.7144  17.7820  17.8696
    17.9802  18.0568  18.4860  18.6423  18.8318  19.3977  19.4645  19.6539
    19.7806  19.9028  20.0060  20.0706  20.1598  20.2378  20.2748  20.3715
    20.4398  20.5324  20.5905  20.7398  21.4365  21.5162  21.6718  21.7724
    21.8564  21.9971  22.0874  22.2035  22.2596  22.3995  22.4662  22.7537
    22.7931  22.8864  23.0616  23.1785  23.3331  23.3805  23.5926  23.6669
    23.7159  25.0421  25.3456  25.7590  26.0369  26.4608  26.7767  26.9909
    29.0970  30.4851  32.3659  33.0773  33.7807  33.8562  33.9466  34.2343
    34.4002  34.9704

          k = 0.2031 0.0492 0.1992 ( 19402 PWs)   bands (ev):

   -75.7716 -75.7515 -75.7075 -55.6488 -55.6056 -55.5937 -55.5824 -55.5480
   -55.5376 -55.5209 -44.1910 -44.1780 -44.1762 -44.1731 -44.1686 -44.1639
   -44.1633 -44.1601 -44.1547 -44.1536 -44.1520 -44.1416 -44.1407 -44.1376
   -44.1218 -44.1091 -44.1070 -44.1059 -44.0946 -44.0939 -44.0896 -29.9801
   -29.9207 -29.8884 -29.8688 -29.8618 -29.8473 -29.7924 -29.7875 -29.7235
   -23.6919 -23.6686 -23.6338 -23.6000 -23.5712 -23.5632 -23.5262 -23.4536
   -23.4384 -23.4203 -23.4096 -23.3931 -23.3841 -23.3754 -23.3605 -23.3409
   -23.3163 -23.2975 -23.2711 -23.2470 -23.2397  15.3382  16.0709  16.9679
    17.0539  17.2389  17.3528  17.3939  17.5522  17.8532  17.8768  17.9216
    18.0223  18.1823  18.3052  18.9022  19.1297  19.2246  19.4246  19.5473
    19.6417  19.7632  19.8683  20.1438  20.2526  20.2804  20.3238  20.3777
    20.4934  20.7070  20.8808  20.9313  21.0608  21.1834  21.4347  21.6355
    21.8461  21.9558  22.0828  22.1696  22.4334  22.5923  22.6898  22.7389
    22.8567  22.9576  23.1655  23.3049  23.4359  23.5259  23.5613  23.5981
    23.7855  24.9483  25.3626  25.5975  26.3000  26.5361  26.9559  27.0851
    27.8635  30.9757  32.1216  32.3477  33.3245  33.7879  33.9229  34.1233
    35.1899  35.4509

          k = 0.0933-0.0335-0.1992 ( 19409 PWs)   bands (ev):

   -75.7716 -75.7515 -75.7075 -55.6492 -55.6050 -55.5936 -55.5824 -55.5482
   -55.5378 -55.5209 -44.1910 -44.1780 -44.1762 -44.1731 -44.1686 -44.1639
   -44.1633 -44.1601 -44.1547 -44.1536 -44.1520 -44.1416 -44.1407 -44.1376
   -44.1218 -44.1091 -44.1070 -44.1059 -44.0946 -44.0939 -44.0896 -29.9801
   -29.9203 -29.8884 -29.8688 -29.8619 -29.8473 -29.7924 -29.7877 -29.7235
   -23.6918 -23.6663 -23.6333 -23.5965 -23.5714 -23.5630 -23.5254 -23.4559
   -23.4402 -23.4209 -23.4195 -23.4073 -23.3854 -23.3742 -23.3484 -23.3409
   -23.3068 -23.2967 -23.2718 -23.2471 -23.2393  15.0912  16.3933  17.0205
    17.1154  17.2686  17.3396  17.4419  17.5533  17.7657  17.8373  17.8798
    17.9774  18.1633  18.5228  18.7353  18.9311  19.3292  19.4179  19.5653
    19.7049  19.9265  20.0432  20.1157  20.2062  20.2590  20.3197  20.3606
    20.3891  20.4982  20.5782  20.7459  21.2985  21.4630  21.6219  21.7591
    21.8820  21.9292  22.0918  22.3786  22.4380  22.4614  22.4754  22.7766
    22.8136  23.0197  23.0619  23.1634  23.2234  23.3620  23.5924  23.6467
    23.7148  25.3148  25.7121  25.7537  25.8314  26.0727  26.7683  26.9991
    28.9815  30.3202  32.3663  32.8473  33.4643  33.7832  33.9441  34.2608
    34.9022  35.0399

          k = 0.1299-0.0059-0.0664 ( 19370 PWs)   bands (ev):

   -75.7716 -75.7515 -75.7075 -55.6500 -55.6040 -55.5933 -55.5823 -55.5485
   -55.5380 -55.5210 -44.1910 -44.1780 -44.1762 -44.1731 -44.1686 -44.1639
   -44.1633 -44.1601 -44.1547 -44.1536 -44.1520 -44.1416 -44.1407 -44.1376
   -44.1218 -44.1091 -44.1070 -44.1059 -44.0946 -44.0939 -44.0896 -29.9801
   -29.9197 -29.8884 -29.8687 -29.8621 -29.8474 -29.7924 -29.7882 -29.7236
   -23.6912 -23.6615 -23.6336 -23.5874 -23.5710 -23.5626 -23.5174 -23.4783
   -23.4554 -23.4303 -23.4197 -23.4086 -23.3873 -23.3729 -23.3418 -23.3377
   -23.2995 -23.2867 -23.2731 -23.2473 -23.2387  14.7950  16.8533  17.0023
    17.3377  17.3716  17.4099  17.5326  17.6482  17.7175  17.8084  17.9037
    17.9607  18.0263  18.1856  18.2903  19.0610  19.4938  19.5486  19.6839
    19.7747  19.8022  19.8786  20.0050  20.0419  20.1623  20.3448  20.3621
    20.5187  20.8751  20.9153  21.0438  21.1541  21.4148  21.5162  21.6835
    21.8192  21.8414  22.0174  22.1418  22.2114  22.4032  22.4564  22.6042
    22.7259  22.8607  23.1657  23.4961  23.5094  23.5394  23.5862  23.6311
    23.7875  24.1464  25.3705  25.6002  26.3196  26.5529  27.0427  27.4667
    28.2519  31.6775  32.3318  32.6382  33.3925  33.7881  33.9191  34.1162
    35.0916  35.2091

          k = 0.1665 0.1645 0.0664 ( 19408 PWs)   bands (ev):

   -75.7716 -75.7513 -75.7078 -55.6469 -55.6057 -55.5962 -55.5807 -55.5469
   -55.5374 -55.5232 -44.1910 -44.1780 -44.1762 -44.1731 -44.1686 -44.1639
   -44.1633 -44.1601 -44.1547 -44.1536 -44.1520 -44.1416 -44.1407 -44.1376
   -44.1218 -44.1091 -44.1070 -44.1059 -44.0946 -44.0939 -44.0896 -29.9566
   -29.9197 -29.8877 -29.8687 -29.8618 -29.8463 -29.7936 -29.7884 -29.7477
   -23.6742 -23.6573 -23.6127 -23.5960 -23.5702 -23.5423 -23.5188 -23.4620
   -23.4494 -23.4382 -23.4230 -23.4045 -23.3905 -23.3727 -23.3528 -23.3381
   -23.3058 -23.2946 -23.2809 -23.2640 -23.2582  15.2379  16.7238  17.1444
    17.2181  17.3803  17.4904  17.5306  17.5695  17.6569  17.9298  18.1019
    18.1854  18.2633  18.5521  18.6818  18.8234  19.1583  19.3382  19.5400
    19.6690  19.7030  19.8178  19.8510  19.9887  20.1697  20.2556  20.3588
    20.3755  20.5466  20.6963  20.9860  21.3995  21.5706  21.6549  21.7361
    21.7986  21.9306  21.9828  22.0048  22.0161  22.0979  22.6509  22.7175
    22.9708  23.0009  23.1493  23.1887  23.2745  23.3190  23.3408  23.3721
    23.5357  23.8051  25.1770  25.4159  25.5676  26.7985  28.1911  28.4193
    29.5427  30.3952  31.3187  31.8351  33.4798  34.4834  35.1769  35.4535
    35.6185  36.0009

          k = 0.2031 0.1920 0.1992 ( 19407 PWs)   bands (ev):

   -75.7716 -75.7513 -75.7078 -55.6463 -55.6061 -55.5968 -55.5807 -55.5475
   -55.5368 -55.5227 -44.1910 -44.1780 -44.1762 -44.1731 -44.1686 -44.1639
   -44.1633 -44.1601 -44.1547 -44.1536 -44.1520 -44.1416 -44.1407 -44.1376
   -44.1218 -44.1091 -44.1070 -44.1059 -44.0946 -44.0939 -44.0896 -29.9566
   -29.9203 -29.8877 -29.8687 -29.8617 -29.8462 -29.7936 -29.7879 -29.7477
   -23.6755 -23.6610 -23.6161 -23.6007 -23.5697 -23.5392 -23.5196 -23.4691
   -23.4413 -23.4364 -23.3973 -23.3925 -23.3804 -23.3755 -23.3642 -23.3441
   -23.3171 -23.2991 -23.2809 -23.2687 -23.2579  15.6204  16.2389  17.0835
    17.1871  17.3540  17.4188  17.4936  17.6767  17.7070  17.9452  18.1259
    18.2033  18.3181  18.4181  18.7044  18.9059  19.0367  19.2120  19.3456
    19.4513  19.8205  19.8912  19.9248  20.0177  20.4073  20.4352  20.5393
    20.6297  20.7656  20.8180  21.0151  21.1018  21.1927  21.2876  21.5387
    21.6079  22.1048  22.1885  22.2226  22.2802  22.3354  22.4061  22.5054
    22.8823  22.9120  22.9656  23.0348  23.1039  23.3558  23.5088  23.6412
    23.6837  23.7878  24.3739  26.0780  26.8650  27.5024  27.6869  27.7906
    28.9237  31.0318  31.3309  31.8771  32.1853  33.7334  34.4973  34.8100
    35.2862  35.5622

          k = 0.0933 0.1093-0.1992 ( 19379 PWs)   bands (ev):

   -75.7716 -75.7513 -75.7078 -55.6468 -55.6055 -55.5963 -55.5808 -55.5478
   -55.5374 -55.5224 -44.1910 -44.1780 -44.1762 -44.1731 -44.1686 -44.1639
   -44.1633 -44.1601 -44.1547 -44.1536 -44.1520 -44.1416 -44.1407 -44.1376
   -44.1218 -44.1091 -44.1070 -44.1059 -44.0946 -44.0939 -44.0896 -29.9566
   -29.9200 -29.8877 -29.8687 -29.8619 -29.8463 -29.7936 -29.7881 -29.7477
   -23.6754 -23.6581 -23.6161 -23.5967 -23.5695 -23.5367 -23.5168 -23.4774
   -23.4484 -23.4381 -23.4195 -23.3882 -23.3818 -23.3785 -23.3482 -23.3368
   -23.3085 -23.3038 -23.2808 -23.2681 -23.2588  15.2508  16.7243  17.1673
    17.2805  17.4055  17.4997  17.5490  17.6816  17.8108  17.8488  17.9690
    18.0616  18.2027  18.5292  18.6126  18.7606  19.1351  19.1904  19.3427
    19.5570  19.7795  19.9124  20.1059  20.1287  20.2274  20.2962  20.3688
    20.3969  20.6882  20.9355  21.0554  21.3017  21.3729  21.4665  21.6906
    21.7071  21.7801  21.8709  21.9709  22.0773  22.6110  22.7096  22.7336
    22.7906  22.8569  22.9874  23.1369  23.1797  23.3189  23.5143  23.5673
    23.6218  23.7293  23.9195  25.5902  26.7562  27.3276  28.4844  28.5648
    29.5521  30.3259  31.2607  32.0529  32.9665  33.4615  33.9245  34.4850
    34.7160  35.4920

          k = 0.1299 0.1369-0.0664 ( 19394 PWs)   bands (ev):

   -75.7716 -75.7513 -75.7078 -55.6474 -55.6051 -55.5958 -55.5808 -55.5471
   -55.5380 -55.5228 -44.1910 -44.1780 -44.1762 -44.1731 -44.1686 -44.1639
   -44.1633 -44.1601 -44.1547 -44.1536 -44.1520 -44.1416 -44.1407 -44.1376
   -44.1218 -44.1091 -44.1070 -44.1059 -44.0946 -44.0939 -44.0896 -29.9566
   -29.9194 -29.8877 -29.8686 -29.8619 -29.8463 -29.7936 -29.7886 -29.7477
   -23.6741 -23.6544 -23.6142 -23.5899 -23.5696 -23.5393 -23.5108 -23.4784
   -23.4688 -23.4380 -23.4292 -23.3936 -23.3883 -23.3753 -23.3509 -23.3311
   -23.3029 -23.2961 -23.2787 -23.2636 -23.2588  15.0305  17.0347  17.1390
    17.3681  17.4947  17.5694  17.6441  17.6783  17.7938  17.8846  17.9731
    18.0181  18.1695  18.2733  18.3856  18.8434  19.2412  19.3465  19.4762
    19.7259  19.7665  19.8488  19.9205  19.9825  20.1196  20.1996  20.6824
    20.7107  20.7401  20.8197  20.8644  20.9028  21.1177  21.2293  21.7746
    21.8587  22.1057  22.2036  22.2712  22.2867  22.3488  22.4106  22.4405
    22.4754  22.8985  23.0239  23.3545  23.4737  23.5167  23.5578  23.6531
    23.7102  23.8013  23.9189  24.3639  26.9152  27.5955  28.0837  28.3361
    28.9344  31.3081  31.8045  32.6158  32.7287  33.7251  34.7517  35.1708
    35.3288  35.5170

          k = 0.1665 0.3073 0.0664 ( 19372 PWs)   bands (ev):

   -75.7716 -75.7509 -75.7082 -55.6419 -55.6097 -55.5983 -55.5789 -55.5454
   -55.5355 -55.5274 -44.1910 -44.1780 -44.1762 -44.1731 -44.1686 -44.1639
   -44.1633 -44.1601 -44.1547 -44.1536 -44.1520 -44.1416 -44.1407 -44.1376
   -44.1218 -44.1091 -44.1070 -44.1059 -44.0946 -44.0939 -44.0896 -29.9193
   -29.8970 -29.8860 -29.8686 -29.8616 -29.8444 -29.8089 -29.7955 -29.7890
   -23.6475 -23.6361 -23.6067 -23.5761 -23.5611 -23.5175 -23.4910 -23.4789
   -23.4605 -23.4359 -23.4148 -23.4028 -23.3987 -23.3728 -23.3618 -23.3488
   -23.3355 -23.3162 -23.2989 -23.2804 -23.2707  15.9453  16.5729  17.1631
    17.4816  17.5962  17.6500  17.8259  17.9179  18.0158  18.0539  18.2365
    18.3129  18.4982  18.5494  18.6656  18.7318  18.8129  18.9589  19.2043
    19.2815  19.4523  19.5813  19.7085  20.0348  20.2863  20.3961  20.4321
    20.4946  20.6555  20.8056  20.9300  21.2089  21.2539  21.3433  21.5116
    21.6350  21.7284  21.8235  21.8616  22.0399  22.0673  22.2132  22.2992
    22.4382  22.6934  22.8352  23.2035  23.2838  23.3876  23.4595  23.4652
    23.4968  23.5462  24.0836  24.7037  26.3598  28.0790  29.9612  30.2296
    30.3686  30.5251  30.8394  31.2799  32.4395  33.1863  34.5936  35.1950
    35.4341  35.5885

          k = 0.2031 0.3348 0.1992 ( 19392 PWs)   bands (ev):

   -75.7716 -75.7509 -75.7082 -55.6414 -55.6093 -55.5992 -55.5789 -55.5473
   -55.5342 -55.5268 -44.1910 -44.1780 -44.1762 -44.1731 -44.1686 -44.1639
   -44.1633 -44.1601 -44.1547 -44.1536 -44.1520 -44.1416 -44.1407 -44.1376
   -44.1218 -44.1091 -44.1070 -44.1059 -44.0946 -44.0939 -44.0896 -29.9198
   -29.8971 -29.8860 -29.8686 -29.8616 -29.8444 -29.8089 -29.7955 -29.7885
   -23.6539 -23.6348 -23.6113 -23.5797 -23.5623 -23.5128 -23.4864 -23.4775
   -23.4606 -23.4381 -23.4044 -23.3961 -23.3898 -23.3722 -23.3590 -23.3482
   -23.3361 -23.3141 -23.3093 -23.2893 -23.2769  16.2128  16.6513  17.0090
    17.4584  17.5089  17.6547  17.9259  17.9416  17.9909  18.0366  18.1503
    18.1652  18.3104  18.5356  18.5623  18.6508  18.7958  18.8893  18.9444
    19.1638  19.5834  19.9975  20.0477  20.1642  20.2459  20.3637  20.4935
    20.5788  20.7885  20.9312  21.0712  21.1623  21.1926  21.3323  21.4428
    21.5750  21.7217  21.7973  21.8905  21.9948  22.1038  22.1838  22.2525
    22.4031  22.5501  22.6544  22.7349  23.2525  23.2920  23.3249  23.3808
    23.5281  23.5606  23.6103  26.9025  27.8064  27.9207  28.8159  29.3995
    30.2166  30.8009  30.8419  31.3208  32.0736  32.3946  33.2004  33.8908
    35.7575  35.9841

          k = 0.0933 0.2522-0.1992 ( 19371 PWs)   bands (ev):

   -75.7716 -75.7509 -75.7082 -55.6418 -55.6091 -55.5986 -55.5790 -55.5468
   -55.5353 -55.5264 -44.1910 -44.1780 -44.1762 -44.1731 -44.1686 -44.1639
   -44.1633 -44.1601 -44.1547 -44.1536 -44.1520 -44.1416 -44.1407 -44.1376
   -44.1218 -44.1091 -44.1070 -44.1059 -44.0946 -44.0939 -44.0896 -29.9195
   -29.8971 -29.8860 -29.8686 -29.8617 -29.8444 -29.8089 -29.7955 -29.7887
   -23.6521 -23.6342 -23.6060 -23.5814 -23.5612 -23.5119 -23.4863 -23.4762
   -23.4679 -23.4401 -23.4199 -23.3990 -23.3892 -23.3690 -23.3549 -23.3448
   -23.3352 -23.3148 -23.3075 -23.2850 -23.2758  15.8222  16.9564  17.2292
    17.5242  17.6764  17.6990  17.7786  17.8494  17.9302  18.1162  18.1356
    18.2575  18.3807  18.4675  18.4938  18.6691  18.7623  18.8021  18.9130
    19.3818  19.4234  19.9836  20.1595  20.2571  20.3224  20.3921  20.4379
    20.4702  20.5541  20.5945  20.9401  21.1307  21.2855  21.3754  21.4287
    21.5273  21.6125  21.8391  22.0478  22.1533  22.2406  22.3162  22.3796
    22.4041  22.5021  22.8339  22.9615  22.9809  23.2440  23.2931  23.4683
    23.4955  23.5363  23.5740  25.5102  28.3139  28.4631  29.1567  29.3940
    29.9109  30.2466  31.2988  31.6507  32.3639  32.7751  33.8815  34.3854
    34.7957  35.3050

          k = 0.1299 0.2797-0.0664 ( 19370 PWs)   bands (ev):

   -75.7716 -75.7509 -75.7082 -55.6423 -55.6096 -55.5977 -55.5789 -55.5447
   -55.5368 -55.5270 -44.1910 -44.1780 -44.1762 -44.1731 -44.1686 -44.1639
   -44.1633 -44.1601 -44.1547 -44.1536 -44.1520 -44.1416 -44.1407 -44.1376
   -44.1218 -44.1091 -44.1070 -44.1059 -44.0946 -44.0939 -44.0896 -29.9190
   -29.8970 -29.8860 -29.8685 -29.8617 -29.8444 -29.8089 -29.7955 -29.7893
   -23.6452 -23.6358 -23.6015 -23.5784 -23.5597 -23.5141 -23.4886 -23.4803
   -23.4730 -23.4388 -23.4269 -23.4029 -23.3936 -23.3740 -23.3556 -23.3515
   -23.3340 -23.3147 -23.2947 -23.2820 -23.2671  15.6844  16.6971  17.3719
    17.4819  17.6946  17.7609  17.9300  17.9842  18.0357  18.0696  18.1379
    18.2975  18.3637  18.5152  18.5948  18.6770  18.7330  18.7999  19.1930
    19.4909  19.7024  19.7974  19.9077  20.0052  20.0627  20.2648  20.3182
    20.3933  20.4452  20.6203  20.7364  21.1632  21.3333  21.4355  21.5130
    21.6282  21.8375  21.9474  22.0012  22.0486  22.1415  22.2151  22.2879
    22.5247  22.7144  23.1035  23.1807  23.3332  23.4615  23.4899  23.5336
    23.5410  23.5841  23.6118  24.2134  26.0203  28.8305  29.2838  29.6485
    30.2954  30.8472  31.2991  33.0562  33.2727  33.5208  33.8906  34.1819
    34.3672  35.3839

          k = 0.1665-0.2640 0.0664 ( 19382 PWs)   bands (ev):

   -75.7716 -75.7509 -75.7082 -55.6421 -55.6093 -55.5981 -55.5790 -55.5459
   -55.5361 -55.5266 -44.1910 -44.1780 -44.1762 -44.1731 -44.1686 -44.1639
   -44.1633 -44.1601 -44.1547 -44.1536 -44.1520 -44.1416 -44.1407 -44.1376
   -44.1218 -44.1091 -44.1070 -44.1059 -44.0946 -44.0939 -44.0896 -29.9193
   -29.8971 -29.8860 -29.8685 -29.8617 -29.8444 -29.8089 -29.7955 -29.7890
   -23.6488 -23.6350 -23.6028 -23.5807 -23.5605 -23.5117 -23.4871 -23.4783
   -23.4723 -23.4391 -23.4264 -23.3998 -23.3903 -23.3710 -23.3553 -23.3494
   -23.3341 -23.3144 -23.3020 -23.2821 -23.2717  15.7140  16.8648  17.3351
    17.5047  17.6832  17.7656  17.8500  17.9107  17.9934  18.0645  18.2001
    18.2480  18.3310  18.4806  18.5062  18.6620  18.7534  18.8171  18.9619
    19.4458  19.6021  19.9647  20.0881  20.2012  20.2351  20.2437  20.3478
    20.4105  20.4663  20.5055  20.8901  21.0501  21.3208  21.4638  21.5092
    21.6275  21.7408  21.9353  21.9581  22.0696  22.1646  22.2546  22.2905
    22.4021  22.7523  23.0274  23.1618  23.1915  23.2304  23.2918  23.4893
    23.5245  23.5645  23.5888  24.6005  27.3920  28.6604  29.2879  29.4869
    30.1999  30.4493  31.1741  32.5591  32.8439  33.2004  33.9508  34.1482
    34.6749  34.9841

          k = 0.2031-0.2364 0.1992 ( 19398 PWs)   bands (ev):

   -75.7716 -75.7509 -75.7082 -55.6415 -55.6091 -55.5991 -55.5790 -55.5475
   -55.5344 -55.5265 -44.1910 -44.1780 -44.1762 -44.1731 -44.1686 -44.1639
   -44.1633 -44.1601 -44.1547 -44.1536 -44.1520 -44.1416 -44.1407 -44.1376
   -44.1218 -44.1091 -44.1070 -44.1059 -44.0946 -44.0939 -44.0896 -29.9198
   -29.8971 -29.8860 -29.8686 -29.8617 -29.8444 -29.8089 -29.7955 -29.7885
   -23.6540 -23.6349 -23.6102 -23.5807 -23.5622 -23.5119 -23.4855 -23.4762
   -23.4624 -23.4397 -23.4064 -23.3997 -23.3892 -23.3703 -23.3568 -23.3453
   -23.3352 -23.3135 -23.3100 -23.2916 -23.2769  16.0514  16.8332  17.1016
    17.5002  17.5491  17.6678  17.8291  17.8877  17.9363  18.0334  18.1502
    18.2461  18.3743  18.4562  18.5792  18.6252  18.7710  18.8286  18.8910
    19.2077  19.5188  20.0050  20.1646  20.2468  20.3057  20.4157  20.4373
    20.5190  20.7358  20.9514  20.9967  21.0327  21.2456  21.3365  21.5203
    21.5513  21.6625  21.7345  21.8773  22.0545  22.1801  22.2402  22.3004
    22.4029  22.4698  22.7751  22.7932  23.0753  23.2503  23.3073  23.4127
    23.5060  23.5352  23.5863  26.8297  27.9488  27.9908  29.2000  29.8439
    29.9103  30.2081  30.6351  31.4074  32.3242  32.5831  32.9187  34.1895
    35.4919  35.6050

          k = 0.0933-0.3191-0.1992 ( 19391 PWs)   bands (ev):

   -75.7716 -75.7509 -75.7082 -55.6416 -55.6095 -55.5988 -55.5789 -55.5464
   -55.5347 -55.5272 -44.1910 -44.1780 -44.1762 -44.1731 -44.1686 -44.1639
   -44.1633 -44.1601 -44.1547 -44.1536 -44.1520 -44.1416 -44.1407 -44.1376
   -44.1218 -44.1091 -44.1070 -44.1059 -44.0946 -44.0939 -44.0896 -29.9196
   -29.8971 -29.8860 -29.8686 -29.8616 -29.8444 -29.8089 -29.7955 -29.7888
   -23.6512 -23.6352 -23.6094 -23.5772 -23.5621 -23.5151 -23.4893 -23.4789
   -23.4588 -23.4357 -23.4082 -23.3994 -23.3936 -23.3741 -23.3625 -23.3484
   -23.3362 -23.3163 -23.3050 -23.2814 -23.2746  16.1307  16.5842  17.0169
    17.4656  17.5196  17.6396  17.8879  17.9520  18.0074  18.0833  18.1775
    18.2198  18.4045  18.5473  18.6525  18.7291  18.7660  18.8554  19.1158
    19.2875  19.5490  19.6876  19.8627  20.0507  20.2764  20.3667  20.5111
    20.5568  20.7738  20.8426  21.0617  21.1976  21.2410  21.3256  21.4903
    21.5846  21.7028  21.8009  21.8411  21.9298  22.1147  22.2191  22.2996
    22.4992  22.6721  22.7114  22.7841  23.2727  23.3426  23.4123  23.5085
    23.5486  23.5931  23.6806  25.5705  27.3815  27.8976  29.3263  29.7634
    30.3128  30.6160  31.0698  31.3872  32.1851  32.5455  33.8143  34.5749
    35.7123  35.8824

          k = 0.1299-0.2915-0.0664 ( 19375 PWs)   bands (ev):

   -75.7716 -75.7509 -75.7082 -55.6422 -55.6097 -55.5978 -55.5789 -55.5446
   -55.5366 -55.5273 -44.1910 -44.1780 -44.1762 -44.1731 -44.1686 -44.1639
   -44.1633 -44.1601 -44.1547 -44.1536 -44.1520 -44.1416 -44.1407 -44.1376
   -44.1218 -44.1091 -44.1070 -44.1059 -44.0946 -44.0939 -44.0896 -29.9191
   -29.8970 -29.8860 -29.8685 -29.8616 -29.8444 -29.8089 -29.7955 -29.7893
   -23.6441 -23.6368 -23.6032 -23.5765 -23.5602 -23.5166 -23.4902 -23.4796
   -23.4677 -23.4373 -23.4243 -23.4033 -23.3975 -23.3749 -23.3590 -23.3501
   -23.3340 -23.3159 -23.2936 -23.2808 -23.2670  15.7526  16.6078  17.3278
    17.4756  17.6826  17.7466  17.8339  17.9325  18.0070  18.1245  18.1929
    18.3005  18.4468  18.5226  18.6061  18.7450  18.8282  18.9304  19.2635
    19.3773  19.5174  19.5785  19.7545  20.0180  20.2803  20.3106  20.3923
    20.4321  20.4845  20.5255  20.8767  21.1894  21.2992  21.4027  21.5278
    21.5900  21.7826  21.8701  21.9208  22.0442  22.1312  22.2901  22.3384
    22.6890  22.7698  22.9689  23.0694  23.2451  23.3850  23.4680  23.5152
    23.5415  23.5592  23.8651  25.0731  25.0925  28.4747  29.6837  29.9394
    30.3591  30.7488  31.2714  32.0549  32.8901  34.0203  34.3018  34.6381
    35.0552  35.2509

          k = 0.1665-0.1212 0.0664 ( 19381 PWs)   bands (ev):

   -75.7716 -75.7513 -75.7078 -55.6472 -55.6052 -55.5960 -55.5808 -55.5476
   -55.5378 -55.5225 -44.1910 -44.1780 -44.1762 -44.1731 -44.1686 -44.1639
   -44.1633 -44.1601 -44.1547 -44.1536 -44.1520 -44.1416 -44.1407 -44.1376
   -44.1218 -44.1091 -44.1070 -44.1059 -44.0946 -44.0939 -44.0896 -29.9566
   -29.9197 -29.8877 -29.8686 -29.8619 -29.8463 -29.7936 -29.7883 -29.7478
   -23.6748 -23.6561 -23.6153 -23.5932 -23.5692 -23.5371 -23.5141 -23.4767
   -23.4626 -23.4380 -23.4260 -23.3886 -23.3832 -23.3785 -23.3486 -23.3333
   -23.3077 -23.2983 -23.2801 -23.2658 -23.2588  15.1071  16.9421  17.1456
    17.3557  17.4802  17.5136  17.6399  17.6842  17.7847  17.8421  17.9395
    18.0966  18.1045  18.3191  18.5568  18.8365  19.1279  19.2386  19.4627
    19.6377  19.7345  19.9127  19.9904  20.0678  20.2145  20.2743  20.3974
    20.5323  20.7276  20.9106  21.0320  21.1186  21.3059  21.3725  21.6317
    21.6864  21.9009  22.0276  22.0758  22.1540  22.5346  22.6017  22.7430
    22.8215  22.8628  22.9261  23.0503  23.3291  23.4220  23.5166  23.5832
    23.6369  23.7538  24.0038  24.7862  27.2996  27.3981  27.9274  28.8750
    29.1139  31.1129  31.2859  32.0798  33.0686  33.8863  34.1147  34.4307
    34.7547  35.4147

          k = 0.2031-0.0936 0.1992 ( 19399 PWs)   bands (ev):

   -75.7716 -75.7513 -75.7078 -55.6464 -55.6059 -55.5967 -55.5808 -55.5478
   -55.5369 -55.5225 -44.1910 -44.1780 -44.1762 -44.1731 -44.1686 -44.1639
   -44.1633 -44.1601 -44.1547 -44.1536 -44.1520 -44.1416 -44.1407 -44.1376
   -44.1218 -44.1091 -44.1070 -44.1059 -44.0946 -44.0939 -44.0896 -29.9566
   -29.9203 -29.8877 -29.8687 -29.8617 -29.8462 -29.7936 -29.7879 -29.7477
   -23.6758 -23.6605 -23.6168 -23.6002 -23.5694 -23.5372 -23.5190 -23.4737
   -23.4413 -23.4365 -23.4011 -23.3901 -23.3843 -23.3755 -23.3571 -23.3416
   -23.3138 -23.3041 -23.2815 -23.2693 -23.2575  15.5099  16.3744  17.1093
    17.2145  17.3904  17.4380  17.5020  17.6251  17.7779  17.9811  18.0990
    18.1025  18.2600  18.3727  18.7392  18.9263  19.1033  19.1683  19.2298
    19.4346  19.8373  19.9047  19.9520  20.1008  20.3808  20.4125  20.5071
    20.6416  20.6751  20.9522  21.0427  21.1425  21.2125  21.2643  21.5840
    21.6666  21.7954  22.1503  22.1653  22.2529  22.3875  22.4975  22.7079
    22.8476  22.8747  22.9402  23.0456  23.1589  23.3594  23.5416  23.5922
    23.6647  23.7662  24.0849  26.2117  26.7610  27.4305  27.6440  28.6010
    28.9549  30.7284  31.2957  31.9770  32.5295  33.2276  34.2226  34.5582
    34.8660  35.5900

          k = 0.0933-0.1763-0.1992 ( 19416 PWs)   bands (ev):

   -75.7716 -75.7513 -75.7078 -55.6465 -55.6060 -55.5966 -55.5807 -55.5471
   -55.5370 -55.5231 -44.1910 -44.1780 -44.1762 -44.1731 -44.1686 -44.1639
   -44.1633 -44.1601 -44.1547 -44.1536 -44.1520 -44.1416 -44.1407 -44.1376
   -44.1218 -44.1091 -44.1070 -44.1059 -44.0946 -44.0939 -44.0896 -29.9566
   -29.9201 -29.8877 -29.8687 -29.8617 -29.8462 -29.7936 -29.7881 -29.7477
   -23.6749 -23.6595 -23.6138 -23.5991 -23.5699 -23.5414 -23.5203 -23.4630
   -23.4421 -23.4375 -23.4098 -23.4007 -23.3889 -23.3746 -23.3544 -23.3436
   -23.3131 -23.2945 -23.2818 -23.2661 -23.2572  15.4295  16.4680  17.1112
    17.2140  17.3144  17.4329  17.4879  17.6249  17.6614  17.9891  18.0583
    18.2568  18.3575  18.5409  18.6430  18.8607  19.1583  19.1876  19.4505
    19.6379  19.7255  19.8479  19.9021  19.9993  20.2288  20.3759  20.3941
    20.4886  20.5949  20.6659  21.0303  21.2466  21.4788  21.6199  21.6567
    21.7131  21.9059  22.0668  22.0976  22.1491  22.2390  22.4430  22.7576
    22.8326  22.9679  23.0559  23.1644  23.2322  23.2958  23.4167  23.5253
    23.5728  23.8024  24.8507  25.8870  26.3293  26.4337  27.9737  28.6116
    29.0135  30.5486  31.3242  31.8492  32.7392  34.4588  34.8245  35.4761
    35.6588  35.8286

          k = 0.1299-0.1487-0.0664 ( 19402 PWs)   bands (ev):

   -75.7716 -75.7513 -75.7078 -55.6473 -55.6053 -55.5959 -55.5807 -55.5469
   -55.5378 -55.5231 -44.1910 -44.1780 -44.1762 -44.1731 -44.1686 -44.1639
   -44.1633 -44.1601 -44.1547 -44.1536 -44.1520 -44.1416 -44.1407 -44.1376
   -44.1218 -44.1091 -44.1070 -44.1059 -44.0946 -44.0939 -44.0896 -29.9566
   -29.9194 -29.8877 -29.8686 -29.8619 -29.8463 -29.7936 -29.7886 -29.7478
   -23.6740 -23.6547 -23.6131 -23.5915 -23.5698 -23.5409 -23.5143 -23.4702
   -23.4643 -23.4381 -23.4288 -23.4001 -23.3898 -23.3736 -23.3524 -23.3332
   -23.3008 -23.2969 -23.2790 -23.2623 -23.2585  15.0685  16.9716  17.1353
    17.2958  17.4795  17.5170  17.6372  17.6757  17.7728  17.8492  17.8960
    18.0624  18.2912  18.4239  18.5167  18.7543  19.2148  19.4365  19.5545
    19.6671  19.7612  19.8192  19.9040  20.0228  20.0895  20.2327  20.3817
    20.4626  20.6684  20.7600  20.9028  21.1007  21.3781  21.5289  21.6728
    21.9050  21.9776  22.0988  22.1623  22.2224  22.2469  22.5302  22.5820
    22.6480  22.9437  23.1414  23.2282  23.3119  23.4240  23.4886  23.5497
    23.6032  23.8002  24.4712  24.7228  26.1660  27.5678  27.8604  28.7289
    28.8661  31.2973  31.5253  31.9658  33.5495  34.3740  34.7554  35.3587
    35.4428  35.6033

          k = 0.3147 0.0295 0.0664 ( 19394 PWs)   bands (ev):

   -75.7716 -75.7515 -75.7075 -55.6393 -55.6049 -55.5937 -55.5881 -55.5502
   -55.5395 -55.5209 -44.1910 -44.1780 -44.1762 -44.1731 -44.1686 -44.1639
   -44.1633 -44.1601 -44.1547 -44.1536 -44.1520 -44.1416 -44.1407 -44.1376
   -44.1218 -44.1091 -44.1070 -44.1059 -44.0946 -44.0939 -44.0896 -29.9807
   -29.9208 -29.8885 -29.8704 -29.8619 -29.8489 -29.7946 -29.7877 -29.7233
   -23.7021 -23.6786 -23.6459 -23.6290 -23.5762 -23.5511 -23.5233 -23.4754
   -23.4479 -23.4260 -23.3895 -23.3870 -23.3655 -23.3561 -23.3498 -23.3263
   -23.3015 -23.2976 -23.2762 -23.2600 -23.2463  15.6345  16.6082  17.1873
    17.3057  17.4131  17.4918  17.5433  17.6745  17.7329  17.8015  17.9169
    18.0527  18.1473  18.9690  19.0341  19.1782  19.3908  19.6926  19.7611
    19.9800  20.0599  20.1059  20.1449  20.2473  20.3376  20.3945  20.4340
    20.4770  20.5641  20.8355  20.9428  20.9711  21.0368  21.0783  21.3766
    21.4161  21.5795  21.6512  22.0649  22.2586  22.3112  22.4441  22.4877
    22.5351  22.9927  23.0355  23.3728  23.4053  23.4858  23.5155  23.5708
    23.6425  24.1432  24.9372  25.1385  26.2438  26.5132  26.8280  28.3493
    28.6831  30.3824  30.6424  31.5375  31.9726  32.1247  32.6088  33.0100
    34.7024  35.0752

          k = 0.3513 0.0571 0.1992 ( 19442 PWs)   bands (ev):

   -75.7716 -75.7515 -75.7075 -55.6389 -55.6052 -55.5941 -55.5883 -55.5501
   -55.5392 -55.5209 -44.1910 -44.1780 -44.1762 -44.1731 -44.1686 -44.1639
   -44.1633 -44.1601 -44.1547 -44.1536 -44.1520 -44.1416 -44.1407 -44.1376
   -44.1218 -44.1091 -44.1070 -44.1059 -44.0946 -44.0939 -44.0896 -29.9807
   -29.9211 -29.8885 -29.8704 -29.8618 -29.8488 -29.7946 -29.7874 -29.7233
   -23.7014 -23.6843 -23.6461 -23.6274 -23.5760 -23.5546 -23.5255 -23.4714
   -23.4306 -23.4069 -23.3940 -23.3873 -23.3827 -23.3611 -23.3559 -23.3266
   -23.3028 -23.2968 -23.2737 -23.2587 -23.2476  15.8369  16.4721  17.2531
    17.3582  17.3835  17.4419  17.4663  17.5760  17.7099  17.7779  17.8613
    17.9396  18.4887  18.5796  19.1311  19.2979  19.4806  19.5949  19.6395
    19.7088  20.1660  20.2224  20.2554  20.3524  20.3785  20.4314  20.4442
    20.5018  20.5826  20.6241  20.8675  20.9727  20.9894  21.1123  21.2455
    21.6259  21.7942  21.8917  21.9842  22.0871  22.2476  22.5190  22.7391
    22.7847  22.9460  23.1072  23.2597  23.2889  23.3342  23.3614  23.4432
    23.5112  23.7992  25.2726  25.3926  26.5260  26.7975  27.4722  27.6252
    29.0107  29.5993  30.4866  30.8724  31.7298  32.1526  32.2666  33.3744
    34.3711  35.2108

          k = 0.2414-0.0256-0.1992 ( 19382 PWs)   bands (ev):

   -75.7716 -75.7515 -75.7075 -55.6394 -55.6049 -55.5936 -55.5881 -55.5502
   -55.5395 -55.5210 -44.1910 -44.1780 -44.1762 -44.1731 -44.1686 -44.1639
   -44.1633 -44.1601 -44.1547 -44.1536 -44.1520 -44.1416 -44.1407 -44.1376
   -44.1218 -44.1091 -44.1070 -44.1059 -44.0946 -44.0939 -44.0896 -29.9807
   -29.9207 -29.8885 -29.8703 -29.8619 -29.8488 -29.7946 -29.7877 -29.7233
   -23.7024 -23.6771 -23.6459 -23.6292 -23.5763 -23.5500 -23.5228 -23.4769
   -23.4532 -23.4259 -23.3891 -23.3875 -23.3654 -23.3561 -23.3448 -23.3263
   -23.3018 -23.2978 -23.2764 -23.2603 -23.2460  15.5933  16.6330  17.1881
    17.2837  17.4145  17.5069  17.5456  17.7172  17.7385  17.8047  17.9354
    18.0525  18.1477  18.9349  19.0367  19.1645  19.3860  19.7192  19.7798
    19.9761  20.0626  20.1197  20.1408  20.2424  20.3453  20.4023  20.4307
    20.4539  20.5732  20.9059  20.9362  20.9674  21.0364  21.0955  21.3711
    21.4130  21.4938  21.5649  22.0417  22.2393  22.3301  22.4663  22.5074
    22.5571  22.9599  23.0218  23.3951  23.4183  23.4893  23.5317  23.5716
    23.6429  24.3444  24.8555  24.9669  26.2418  26.5155  26.7152  28.3561
    28.6766  30.4540  30.7937  31.6646  32.1192  32.1347  32.6145  33.0118
    34.6864  35.0881

          k = 0.2781 0.0019-0.0664 ( 19399 PWs)   bands (ev):

   -75.7716 -75.7515 -75.7075 -55.6399 -55.6046 -55.5932 -55.5878 -55.5503
   -55.5398 -55.5210 -44.1910 -44.1780 -44.1762 -44.1731 -44.1686 -44.1639
   -44.1633 -44.1601 -44.1547 -44.1536 -44.1520 -44.1416 -44.1407 -44.1376
   -44.1218 -44.1091 -44.1070 -44.1059 -44.0946 -44.0939 -44.0896 -29.9807
   -29.9203 -29.8885 -29.8703 -29.8621 -29.8489 -29.7946 -29.7879 -29.7233
   -23.7030 -23.6714 -23.6461 -23.6297 -23.5762 -23.5449 -23.5206 -23.4892
   -23.4668 -23.4246 -23.3903 -23.3885 -23.3651 -23.3558 -23.3270 -23.3173
   -23.3137 -23.2963 -23.2784 -23.2613 -23.2449  15.4528  16.7109  17.2067
    17.2839  17.3633  17.4558  17.5722  17.7543  17.8071  17.8992  17.9386
    18.2489  18.4637  18.5182  18.6253  19.2947  19.4633  19.6659  19.9061
    19.9730  20.0543  20.1354  20.2610  20.2960  20.3630  20.4357  20.5106
    20.5672  20.6420  20.7681  20.8651  20.9601  21.0820  21.1642  21.2421
    21.4033  21.4733  21.6132  21.6632  21.9026  22.1867  22.5164  22.6460
    22.6926  23.2744  23.3031  23.3284  23.4340  23.5037  23.5503  23.5625
    23.5714  23.8010  25.2749  25.3932  25.5223  25.7579  27.4850  27.6419
    28.9978  30.4701  31.2857  32.1481  32.2575  32.9035  33.2703  33.7427
    33.9238  34.2015

          k = 0.3147 0.1723 0.0664 ( 19417 PWs)   bands (ev):

   -75.7716 -75.7513 -75.7078 -55.6370 -55.6056 -55.5956 -55.5872 -55.5489
   -55.5390 -55.5233 -44.1910 -44.1780 -44.1762 -44.1731 -44.1686 -44.1639
   -44.1633 -44.1601 -44.1547 -44.1536 -44.1520 -44.1416 -44.1407 -44.1376
   -44.1218 -44.1091 -44.1070 -44.1059 -44.0946 -44.0939 -44.0896 -29.9571
   -29.9204 -29.8878 -29.8703 -29.8618 -29.8478 -29.7956 -29.7881 -29.7475
   -23.6838 -23.6730 -23.6286 -23.6200 -23.5846 -23.5329 -23.5157 -23.4736
   -23.4421 -23.4315 -23.4047 -23.3888 -23.3778 -23.3631 -23.3465 -23.3298
   -23.3021 -23.2975 -23.2865 -23.2747 -23.2581  15.9340  16.7422  17.0981
    17.4960  17.5772  17.6282  17.7434  17.7748  17.9269  17.9782  18.0589
    18.1001  18.2188  18.8681  18.9047  19.0778  19.3514  19.4331  19.5651
    19.9014  20.0422  20.0715  20.1664  20.2404  20.3456  20.4427  20.4758
    20.5203  20.5667  20.6461  20.7327  20.8453  20.9614  21.0258  21.1022
    21.1623  21.3319  21.4608  21.9649  22.3041  22.4233  22.6036  22.6650
    22.7402  22.8730  22.9944  23.0601  23.2070  23.2506  23.3000  23.3468
    23.4096  23.4527  24.7040  25.9083  26.5130  27.2899  27.4209  27.9683
    28.7144  29.7647  30.1573  30.8490  31.5388  33.5614  34.1570  34.7940
    35.3386  35.8327

          k = 0.3513 0.1999 0.1992 ( 19394 PWs)   bands (ev):

   -75.7716 -75.7513 -75.7078 -55.6367 -55.6056 -55.5958 -55.5874 -55.5495
   -55.5388 -55.5229 -44.1910 -44.1780 -44.1762 -44.1731 -44.1686 -44.1639
   -44.1633 -44.1601 -44.1547 -44.1536 -44.1520 -44.1416 -44.1407 -44.1376
   -44.1218 -44.1091 -44.1070 -44.1059 -44.0946 -44.0939 -44.0896 -29.9571
   -29.9207 -29.8878 -29.8703 -29.8618 -29.8478 -29.7956 -29.7878 -29.7475
   -23.6830 -23.6778 -23.6273 -23.6204 -23.5832 -23.5335 -23.5170 -23.4772
   -23.4471 -23.4176 -23.3955 -23.3876 -23.3745 -23.3624 -23.3518 -23.3298
   -23.3065 -23.2968 -23.2914 -23.2765 -23.2582  16.0684  16.6989  17.2676
    17.4644  17.5118  17.5945  17.6097  17.7270  17.8273  17.8839  17.9797
    18.1204  18.5777  18.6731  19.0188  19.1931  19.3354  19.3451  19.4294
    19.7119  20.0182  20.1067  20.2087  20.2327  20.4226  20.5130  20.5406
    20.5719  20.6376  20.6732  20.7082  20.8241  20.8718  20.9275  21.0223
    21.4220  21.4962  21.5904  21.6862  21.9950  22.2708  22.3899  22.5986
    22.7363  23.0926  23.1791  23.2583  23.2786  23.3081  23.3369  23.3543
    23.5520  23.7896  24.3203  25.4110  26.7458  26.9054  27.4111  28.9826
    29.5621  29.8723  30.1404  30.6625  31.0795  32.1511  33.6522  34.0642
    34.4803  34.8630

          k = 0.2414 0.1172-0.1992 ( 19390 PWs)   bands (ev):

   -75.7716 -75.7513 -75.7078 -55.6373 -55.6053 -55.5953 -55.5870 -55.5494
   -55.5395 -55.5228 -44.1910 -44.1780 -44.1762 -44.1731 -44.1686 -44.1639
   -44.1633 -44.1601 -44.1547 -44.1536 -44.1520 -44.1416 -44.1407 -44.1376
   -44.1218 -44.1091 -44.1070 -44.1059 -44.0946 -44.0939 -44.0896 -29.9571
   -29.9203 -29.8878 -29.8703 -29.8620 -29.8478 -29.7956 -29.7881 -29.7475
   -23.6842 -23.6706 -23.6296 -23.6184 -23.5820 -23.5293 -23.5149 -23.4852
   -23.4613 -23.4408 -23.3927 -23.3738 -23.3700 -23.3604 -23.3392 -23.3306
   -23.3089 -23.3027 -23.2843 -23.2732 -23.2634  15.7712  16.8875  17.3670
    17.3960  17.4697  17.5462  17.7241  17.8020  17.8389  17.9272  18.1345
    18.2029  18.4210  18.8609  19.0000  19.2561  19.3820  19.4944  19.6011
    19.7670  19.8657  19.8963  19.9755  20.0797  20.3297  20.4066  20.4791
    20.5216  20.5991  20.6662  20.7351  20.8489  20.8854  20.9770  20.9982
    21.2147  21.3285  21.5175  22.1230  22.2230  22.3520  22.4826  22.5627
    22.9103  23.0535  23.1344  23.2206  23.2645  23.2995  23.3292  23.3551
    23.4458  24.2736  24.8360  24.9302  25.2777  26.6598  26.9200  29.7169
    29.9220  30.3197  30.4932  31.4498  31.7979  32.4854  33.4449  33.8692
    34.1961  34.4540

          k = 0.2781 0.1448-0.0664 ( 19401 PWs)   bands (ev):

   -75.7716 -75.7513 -75.7078 -55.6376 -55.6054 -55.5951 -55.5869 -55.5488
   -55.5398 -55.5232 -44.1910 -44.1780 -44.1762 -44.1731 -44.1686 -44.1639
   -44.1633 -44.1601 -44.1547 -44.1536 -44.1520 -44.1416 -44.1407 -44.1376
   -44.1218 -44.1091 -44.1070 -44.1059 -44.0946 -44.0939 -44.0896 -29.9571
   -29.9200 -29.8878 -29.8703 -29.8620 -29.8478 -29.7956 -29.7884 -29.7475
   -23.6842 -23.6666 -23.6299 -23.6180 -23.5835 -23.5272 -23.5140 -23.4857
   -23.4674 -23.4350 -23.3973 -23.3871 -23.3713 -23.3625 -23.3340 -23.3306
   -23.3073 -23.2975 -23.2801 -23.2715 -23.2645  15.6878  16.8751  17.1710
    17.3630  17.5317  17.6869  17.7952  17.9292  17.9406  18.0632  18.1207
    18.2249  18.3535  18.6384  18.8241  19.0982  19.4635  19.6510  19.7621
    19.8106  19.9331  20.0232  20.1381  20.2512  20.2993  20.3459  20.4078
    20.4512  20.4988  20.5638  20.6072  20.6833  20.7727  20.8309  20.9403
    21.4817  21.5983  21.6923  22.0550  22.1579  22.2409  22.4629  23.0186
    23.0502  23.0689  23.0773  23.1680  23.2069  23.2543  23.2706  23.3206
    23.4672  23.5644  24.0141  25.7848  26.0189  26.4455  27.4049  28.0455
    29.3322  29.8653  30.4681  32.6001  33.0983  33.4506  33.7213  34.1994
    34.5238  34.8246

          k = 0.3147 0.3151 0.0664 ( 19382 PWs)   bands (ev):

   -75.7716 -75.7508 -75.7082 -55.6327 -55.6078 -55.5978 -55.5858 -55.5479
   -55.5368 -55.5280 -44.1910 -44.1780 -44.1762 -44.1731 -44.1686 -44.1639
   -44.1633 -44.1601 -44.1547 -44.1536 -44.1520 -44.1416 -44.1407 -44.1376
   -44.1218 -44.1091 -44.1070 -44.1059 -44.0946 -44.0939 -44.0896 -29.9199
   -29.8974 -29.8861 -29.8702 -29.8617 -29.8461 -29.8089 -29.7973 -29.7888
   -23.6667 -23.6405 -23.6174 -23.6046 -23.5723 -23.5095 -23.4889 -23.4799
   -23.4489 -23.4328 -23.4198 -23.4059 -23.3837 -23.3650 -23.3571 -23.3395
   -23.3305 -23.3107 -23.2959 -23.2848 -23.2672  16.5106  16.8142  17.4289
    17.7269  17.7600  17.8160  17.9998  18.1699  18.2583  18.3291  18.3832
    18.4287  18.5666  18.7497  18.8467  18.9387  18.9902  19.0504  19.2268
    19.4885  19.6782  19.8051  19.9208  20.0089  20.1513  20.2416  20.2755
    20.3448  20.3880  20.4529  20.5174  20.8082  20.9696  21.1592  21.2098
    21.3513  21.4769  21.5422  21.6620  21.7398  21.7810  22.0759  22.3270
    22.6330  22.6548  22.8707  22.9376  23.0602  23.1261  23.3946  23.4167
    23.4543  23.5214  25.1274  25.7786  26.4969  27.4175  27.5385  28.2272
    28.4878  30.3463  31.2782  31.5823  32.4436  33.0555  33.6376  34.7229
    35.4574  35.9526

          k = 0.3513 0.3427 0.1992 ( 19396 PWs)   bands (ev):

   -75.7716 -75.7508 -75.7082 -55.6324 -55.6075 -55.5981 -55.5860 -55.5489
   -55.5364 -55.5274 -44.1910 -44.1780 -44.1762 -44.1731 -44.1686 -44.1639
   -44.1633 -44.1601 -44.1547 -44.1536 -44.1520 -44.1416 -44.1407 -44.1376
   -44.1218 -44.1091 -44.1070 -44.1059 -44.0946 -44.0939 -44.0896 -29.9201
   -29.8975 -29.8860 -29.8702 -29.8618 -29.8461 -29.8089 -29.7973 -29.7885
   -23.6710 -23.6394 -23.6136 -23.6033 -23.5814 -23.5041 -23.4870 -23.4757
   -23.4546 -23.4456 -23.4208 -23.3877 -23.3719 -23.3691 -23.3499 -23.3376
   -23.3288 -23.3173 -23.3051 -23.2898 -23.2677  16.5890  17.0626  17.4158
    17.6792  17.7157  17.8029  17.8580  17.9923  18.0711  18.2421  18.3697
    18.5120  18.6240  18.7685  18.8656  18.9167  19.0542  19.1063  19.1486
    19.3831  19.6657  19.9083  19.9530  20.0352  20.1156  20.2751  20.3193
    20.4489  20.4711  20.5756  20.7205  20.8412  20.9637  21.0763  21.1770
    21.2286  21.4390  21.5044  21.6169  21.6667  21.7540  21.8521  22.1346
    22.2755  22.9342  23.0005  23.1062  23.3199  23.3852  23.4187  23.4489
    23.4691  23.5061  24.2209  25.7450  26.8705  27.5312  28.3450  28.6202
    29.2232  30.1930  30.8021  31.1321  31.4716  31.6854  33.6047  34.1892
    35.9340  36.1327

          k = 0.2414 0.2600-0.1992 ( 19381 PWs)   bands (ev):

   -75.7716 -75.7508 -75.7082 -55.6330 -55.6076 -55.5976 -55.5857 -55.5479
   -55.5375 -55.5275 -44.1910 -44.1780 -44.1762 -44.1731 -44.1686 -44.1639
   -44.1633 -44.1601 -44.1547 -44.1536 -44.1520 -44.1416 -44.1407 -44.1376
   -44.1218 -44.1091 -44.1070 -44.1059 -44.0946 -44.0939 -44.0896 -29.9198
   -29.8975 -29.8860 -29.8702 -29.8618 -29.8461 -29.8089 -29.7973 -29.7889
   -23.6648 -23.6432 -23.6122 -23.6049 -23.5734 -23.5089 -23.4880 -23.4784
   -23.4611 -23.4499 -23.4144 -23.3905 -23.3734 -23.3709 -23.3607 -23.3376
   -23.3280 -23.3088 -23.2940 -23.2868 -23.2714  16.2499  17.1226  17.4988
    17.6660  17.7279  17.7710  17.9648  18.0601  18.2190  18.4097  18.4987
    18.6499  18.6814  18.7689  18.8562  18.9856  19.0598  19.2299  19.2562
    19.4171  19.4477  19.6625  19.7933  19.8320  20.0598  20.0943  20.2140
    20.2977  20.3921  20.4928  20.5627  20.7587  20.9011  21.0462  21.1671
    21.4303  21.5738  21.6664  21.8043  21.8691  22.0108  22.1351  22.2711
    22.4231  22.6732  22.8787  22.8970  23.0345  23.3438  23.4278  23.4557
    23.5174  24.0733  24.1843  25.4507  26.4902  26.8496  27.5174  28.7530
    29.2835  30.6749  31.1799  31.5884  32.4382  33.3999  34.0874  34.3080
    35.1573  35.3735

          k = 0.2781 0.2876-0.0664 ( 19366 PWs)   bands (ev):

   -75.7716 -75.7508 -75.7082 -55.6332 -55.6078 -55.5973 -55.5855 -55.5468
   -55.5381 -55.5280 -44.1910 -44.1780 -44.1762 -44.1731 -44.1686 -44.1639
   -44.1633 -44.1601 -44.1547 -44.1536 -44.1520 -44.1416 -44.1407 -44.1376
   -44.1218 -44.1091 -44.1070 -44.1059 -44.0946 -44.0939 -44.0896 -29.9195
   -29.8975 -29.8861 -29.8702 -29.8617 -29.8461 -29.8089 -29.7973 -29.7891
   -23.6585 -23.6465 -23.6166 -23.6033 -23.5659 -23.5142 -23.4881 -23.4853
   -23.4602 -23.4320 -23.4144 -23.4027 -23.3880 -23.3714 -23.3636 -23.3414
   -23.3277 -23.2972 -23.2903 -23.2825 -23.2719  16.2215  16.7953  17.5291
    17.6638  17.7591  18.0020  18.1587  18.2671  18.3336  18.3618  18.4262
    18.5394  18.6840  18.7530  18.8353  18.9973  19.0737  19.2138  19.3230
    19.3772  19.5368  19.6509  19.7621  19.8046  19.9427  20.1148  20.2332
    20.2719  20.3417  20.3848  20.4230  20.4851  20.8883  21.1603  21.3035
    21.4948  21.6405  21.7498  21.8608  21.9978  22.0822  22.3218  22.3985
    22.5624  22.6609  22.7482  22.8625  22.8801  22.9349  23.1112  23.4328
    23.5003  24.1227  25.0617  25.3604  26.5277  26.6236  27.3849  27.5802
    28.4403  31.4676  32.2719  32.6460  32.9584  33.5711  34.1415  34.6056
    35.0500  35.2771

          k = 0.3147-0.2561 0.0664 ( 19379 PWs)   bands (ev):

   -75.7716 -75.7508 -75.7082 -55.6329 -55.6075 -55.5977 -55.5857 -55.5482
   -55.5373 -55.5274 -44.1910 -44.1780 -44.1762 -44.1731 -44.1686 -44.1639
   -44.1633 -44.1601 -44.1547 -44.1536 -44.1520 -44.1416 -44.1407 -44.1376
   -44.1218 -44.1091 -44.1070 -44.1059 -44.0946 -44.0939 -44.0896 -29.9198
   -29.8975 -29.8860 -29.8702 -29.8618 -29.8461 -29.8089 -29.7974 -29.7888
   -23.6658 -23.6434 -23.6114 -23.6048 -23.5754 -23.5078 -23.4872 -23.4779
   -23.4601 -23.4504 -23.4157 -23.3892 -23.3732 -23.3711 -23.3579 -23.3364
   -23.3279 -23.3124 -23.2950 -23.2880 -23.2707  16.2861  17.1672  17.4877
    17.6682  17.7337  17.7569  17.9362  18.0140  18.1420  18.3983  18.5089
    18.6499  18.6919  18.7712  18.8522  18.9627  19.0560  19.2074  19.2675
    19.4112  19.4392  19.6721  19.8070  19.8948  20.0572  20.1373  20.2505
    20.3311  20.3982  20.5263  20.5599  20.8357  20.9116  21.0190  21.1706
    21.3191  21.5055  21.6551  21.7708  21.8575  21.9967  22.1389  22.2700
    22.4857  22.5193  22.9043  22.9532  23.0806  23.3271  23.4799  23.5177
    23.5394  23.9743  24.0629  25.7249  26.3713  26.7998  27.6414  29.0654
    29.4100  30.4694  31.0299  31.3920  32.1451  33.0547  34.0140  34.4359
    35.3915  35.5730

          k = 0.3513-0.2286 0.1992 ( 19392 PWs)   bands (ev):

   -75.7716 -75.7508 -75.7082 -55.6324 -55.6075 -55.5981 -55.5860 -55.5489
   -55.5363 -55.5275 -44.1910 -44.1780 -44.1762 -44.1731 -44.1686 -44.1639
   -44.1633 -44.1601 -44.1547 -44.1536 -44.1520 -44.1416 -44.1407 -44.1376
   -44.1218 -44.1091 -44.1070 -44.1059 -44.0946 -44.0939 -44.0896 -29.9201
   -29.8975 -29.8860 -29.8702 -29.8618 -29.8461 -29.8089 -29.7974 -29.7885
   -23.6711 -23.6397 -23.6137 -23.6036 -23.5806 -23.5047 -23.4870 -23.4763
   -23.4521 -23.4445 -23.4215 -23.3887 -23.3733 -23.3691 -23.3495 -23.3382
   -23.3296 -23.3178 -23.3040 -23.2897 -23.2671  16.6317  17.0098  17.3921
    17.6669  17.7260  17.8241  17.8721  18.0263  18.0799  18.2276  18.3600
    18.4929  18.5730  18.7842  18.8690  18.9203  19.0482  19.0886  19.1248
    19.4542  19.6618  19.9330  19.9481  20.0484  20.1174  20.2461  20.3160
    20.4536  20.5047  20.5847  20.6591  20.9082  20.9782  21.1039  21.1632
    21.2206  21.4100  21.4936  21.5969  21.6649  21.7679  21.8394  22.1289
    22.2790  22.9608  23.0117  23.1451  23.2248  23.3422  23.4025  23.4268
    23.4570  23.5169  24.3424  25.6832  26.9398  27.8144  28.2897  28.4167
    29.0876  29.9872  30.9406  31.0283  31.5350  31.9559  33.5673  34.0486
    36.0357  36.2083

          k = 0.2414-0.3112-0.1992 ( 19392 PWs)   bands (ev):

   -75.7716 -75.7508 -75.7082 -55.6328 -55.6078 -55.5977 -55.5858 -55.5476
   -55.5370 -55.5280 -44.1910 -44.1780 -44.1762 -44.1731 -44.1686 -44.1639
   -44.1633 -44.1601 -44.1547 -44.1536 -44.1520 -44.1416 -44.1407 -44.1376
   -44.1218 -44.1091 -44.1070 -44.1059 -44.0946 -44.0939 -44.0896 -29.9198
   -29.8975 -29.8860 -29.8702 -29.8617 -29.8461 -29.8089 -29.7974 -29.7889
   -23.6657 -23.6412 -23.6173 -23.6047 -23.5705 -23.5106 -23.4893 -23.4805
   -23.4504 -23.4291 -23.4194 -23.4092 -23.3842 -23.3658 -23.3597 -23.3399
   -23.3297 -23.3079 -23.2957 -23.2838 -23.2670  16.4608  16.7880  17.4593
    17.7400  17.7740  17.8172  17.9794  18.2260  18.2946  18.3324  18.4095
    18.4665  18.5849  18.7238  18.8277  18.9261  18.9821  19.0689  19.2591
    19.4694  19.6607  19.8085  19.8732  19.9903  20.1593  20.2249  20.2647
    20.3295  20.3725  20.4359  20.4666  20.7444  20.9546  21.1816  21.2164
    21.3833  21.5049  21.5443  21.7586  21.7885  21.8070  22.0705  22.3474
    22.5734  22.7774  22.8218  22.9309  23.0200  23.0888  23.3337  23.3586
    23.4768  23.5969  25.2820  25.8627  26.2512  27.1148  27.6329  28.1275
    28.3942  30.6184  31.5037  31.6787  32.3661  33.3530  33.7116  35.0070
    35.1889  35.9121

          k = 0.2781-0.2837-0.0664 ( 19371 PWs)   bands (ev):

   -75.7716 -75.7508 -75.7082 -55.6332 -55.6078 -55.5973 -55.5855 -55.5468
   -55.5381 -55.5279 -44.1910 -44.1780 -44.1762 -44.1731 -44.1686 -44.1639
   -44.1633 -44.1601 -44.1547 -44.1536 -44.1520 -44.1416 -44.1407 -44.1376
   -44.1218 -44.1091 -44.1070 -44.1059 -44.0946 -44.0939 -44.0896 -29.9195
   -29.8975 -29.8860 -29.8702 -29.8618 -29.8461 -29.8089 -29.7974 -29.7891
   -23.6583 -23.6472 -23.6157 -23.6033 -23.5660 -23.5143 -23.4881 -23.4852
   -23.4609 -23.4349 -23.4135 -23.3988 -23.3877 -23.3720 -23.3647 -23.3418
   -23.3269 -23.2970 -23.2909 -23.2818 -23.2726  16.2021  16.8260  17.5277
    17.6570  17.7454  18.0041  18.1432  18.3011  18.3338  18.3595  18.4312
    18.5293  18.6644  18.7900  18.8632  19.0002  19.0874  19.1793  19.3479
    19.3595  19.5549  19.6516  19.7365  19.7927  19.9131  20.0954  20.2013
    20.2535  20.3627  20.3996  20.4525  20.4676  20.8868  21.1569  21.2739
    21.5261  21.6770  21.7682  21.8890  22.0086  22.0891  22.3039  22.3432
    22.4237  22.7319  22.7921  22.8488  22.9012  22.9695  23.1585  23.4412
    23.4863  24.2409  24.9141  25.1147  26.6589  26.8775  27.2717  27.4743
    28.5466  31.3925  32.3551  32.6563  32.9357  33.8874  34.1592  34.4013
    34.7903  35.1288

          k = 0.3147-0.1133 0.0664 ( 19394 PWs)   bands (ev):

   -75.7716 -75.7513 -75.7078 -55.6372 -55.6054 -55.5954 -55.5871 -55.5494
   -55.5394 -55.5228 -44.1910 -44.1780 -44.1762 -44.1731 -44.1686 -44.1639
   -44.1633 -44.1601 -44.1547 -44.1536 -44.1520 -44.1416 -44.1407 -44.1376
   -44.1218 -44.1091 -44.1070 -44.1059 -44.0946 -44.0939 -44.0896 -29.9571
   -29.9204 -29.8878 -29.8703 -29.8619 -29.8478 -29.7956 -29.7881 -29.7475
   -23.6839 -23.6723 -23.6290 -23.6188 -23.5817 -23.5301 -23.5152 -23.4841
   -23.4582 -23.4397 -23.3926 -23.3749 -23.3695 -23.3592 -23.3417 -23.3307
   -23.3099 -23.3022 -23.2858 -23.2736 -23.2620  15.8102  16.8693  17.3707
    17.4141  17.4723  17.5524  17.7087  17.7842  17.8122  17.8839  18.1148
    18.2322  18.3808  18.9041  19.0855  19.2302  19.3556  19.4616  19.5613
    19.7221  19.8592  19.9181  19.9794  20.0740  20.3363  20.4319  20.4874
    20.5268  20.6160  20.7362  20.7859  20.8929  20.9501  20.9752  21.0063
    21.1147  21.2498  21.4969  22.1476  22.2421  22.3315  22.3835  22.6499
    22.8502  23.0122  23.1417  23.2326  23.2728  23.3026  23.3345  23.3567
    23.4129  24.4292  24.7516  25.1213  25.1353  26.6292  27.0537  29.8404
    30.0028  30.2480  30.4623  31.3700  31.5497  32.2110  33.3829  33.8620
    34.1654  34.3990

          k = 0.3513-0.0858 0.1992 ( 19382 PWs)   bands (ev):

   -75.7716 -75.7513 -75.7078 -55.6367 -55.6056 -55.5959 -55.5874 -55.5494
   -55.5387 -55.5229 -44.1910 -44.1780 -44.1762 -44.1731 -44.1686 -44.1639
   -44.1633 -44.1601 -44.1547 -44.1536 -44.1520 -44.1416 -44.1407 -44.1376
   -44.1218 -44.1091 -44.1070 -44.1059 -44.0946 -44.0939 -44.0896 -29.9571
   -29.9207 -29.8878 -29.8704 -29.8618 -29.8478 -29.7956 -29.7878 -29.7475
   -23.6835 -23.6777 -23.6271 -23.6206 -23.5830 -23.5340 -23.5171 -23.4759
   -23.4456 -23.4146 -23.3977 -23.3891 -23.3763 -23.3627 -23.3528 -23.3297
   -23.3054 -23.2971 -23.2916 -23.2764 -23.2573  16.0907  16.6786  17.2319
    17.4673  17.5148  17.6128  17.6251  17.7245  17.8451  17.8832  17.9802
    18.1031  18.5637  18.6525  19.0170  19.1758  19.3198  19.3463  19.4040
    19.7518  20.0549  20.1514  20.2274  20.2809  20.3884  20.4956  20.5554
    20.5873  20.6157  20.6592  20.7352  20.8208  20.8355  20.8890  21.0114
    21.4727  21.5309  21.5877  21.7250  21.9471  22.2490  22.3969  22.6223
    22.6944  23.0791  23.1722  23.2532  23.2770  23.3110  23.3499  23.3754
    23.5624  23.6665  24.2554  25.5688  26.9458  27.0229  27.3315  28.7335
    29.4817  29.8034  30.0385  30.6308  31.0265  32.3842  33.6702  34.1636
    34.6476  35.0466

          k = 0.2414-0.1684-0.1992 ( 19423 PWs)   bands (ev):

   -75.7716 -75.7513 -75.7078 -55.6371 -55.6056 -55.5955 -55.5872 -55.5489
   -55.5391 -55.5233 -44.1910 -44.1780 -44.1762 -44.1731 -44.1686 -44.1639
   -44.1633 -44.1601 -44.1547 -44.1536 -44.1520 -44.1416 -44.1407 -44.1376
   -44.1218 -44.1091 -44.1070 -44.1059 -44.0946 -44.0939 -44.0896 -29.9572
   -29.9203 -29.8878 -29.8703 -29.8618 -29.8478 -29.7956 -29.7882 -29.7475
   -23.6844 -23.6714 -23.6286 -23.6199 -23.5843 -23.5324 -23.5153 -23.4743
   -23.4468 -23.4305 -23.4057 -23.3893 -23.3762 -23.3631 -23.3450 -23.3301
   -23.3035 -23.2969 -23.2854 -23.2740 -23.2581  15.8868  16.7623  17.0962
    17.4685  17.5935  17.6655  17.7548  17.7899  17.9412  17.9824  18.0582
    18.1143  18.2089  18.8597  18.9058  19.0716  19.3535  19.4655  19.6351
    19.9096  20.0104  20.0356  20.1234  20.2395  20.3264  20.4311  20.4723
    20.5060  20.5772  20.6341  20.6838  20.8563  20.9980  21.0463  21.0905
    21.1592  21.2682  21.4683  22.0800  22.2825  22.4438  22.6371  22.6865
    22.7309  22.8535  22.9478  23.0800  23.2118  23.2531  23.3011  23.3429
    23.3663  23.4495  24.8465  25.6279  26.6535  27.1557  27.3003  28.1463
    28.5263  29.7831  30.2594  31.0069  31.7534  33.5737  34.3358  34.9331
    35.3022  35.5423

          k = 0.2781-0.1409-0.0664 ( 19396 PWs)   bands (ev):

   -75.7716 -75.7513 -75.7078 -55.6377 -55.6054 -55.5950 -55.5868 -55.5488
   -55.5398 -55.5231 -44.1910 -44.1780 -44.1762 -44.1731 -44.1686 -44.1639
   -44.1633 -44.1601 -44.1547 -44.1536 -44.1520 -44.1416 -44.1407 -44.1376
   -44.1218 -44.1091 -44.1070 -44.1059 -44.0946 -44.0939 -44.0896 -29.9571
   -29.9200 -29.8878 -29.8702 -29.8620 -29.8478 -29.7956 -29.7884 -29.7475
   -23.6845 -23.6664 -23.6300 -23.6178 -23.5829 -23.5269 -23.5139 -23.4873
   -23.4683 -23.4366 -23.3952 -23.3848 -23.3714 -23.3624 -23.3333 -23.3315
   -23.3081 -23.2985 -23.2796 -23.2705 -23.2653  15.6776  16.8897  17.1963
    17.3571  17.5159  17.6564  17.7983  17.9144  17.9272  18.0674  18.1303
    18.2874  18.4215  18.5840  18.7706  19.1275  19.4794  19.6740  19.7492
    19.7913  19.9429  19.9879  20.1588  20.2279  20.3166  20.3418  20.4092
    20.4466  20.4913  20.5474  20.6124  20.6852  20.7368  20.7830  20.9699
    21.5059  21.6647  21.7728  21.9815  22.0455  22.2090  22.4346  23.0455
    23.0984  23.1278  23.1451  23.1981  23.2361  23.2511  23.3039  23.3724
    23.4964  23.5873  23.7802  25.8412  25.9523  26.2989  27.2546  28.2871
    29.5058  29.9002  30.4829  32.6618  33.0318  33.5720  33.8486  33.9967
    34.3866  34.5199

          k = 0.4629 0.0374 0.0664 ( 19406 PWs)   bands (ev):

   -75.7716 -75.7515 -75.7075 -55.6255 -55.6113 -55.5943 -55.5918 -55.5518
   -55.5406 -55.5210 -44.1910 -44.1780 -44.1762 -44.1731 -44.1686 -44.1639
   -44.1633 -44.1601 -44.1547 -44.1536 -44.1520 -44.1416 -44.1407 -44.1376
   -44.1218 -44.1091 -44.1070 -44.1059 -44.0946 -44.0939 -44.0896 -29.9812
   -29.9213 -29.8886 -29.8717 -29.8620 -29.8500 -29.7963 -29.7875 -29.7230
   -23.7164 -23.6803 -23.6657 -23.6462 -23.5588 -23.5470 -23.5170 -23.4984
   -23.4537 -23.4304 -23.3782 -23.3747 -23.3624 -23.3425 -23.3271 -23.3119
   -23.3026 -23.2914 -23.2851 -23.2777 -23.2508  16.2255  16.7166  17.0318
    17.2030  17.3835  17.5298  17.7460  17.8414  17.9166  18.1074  18.3698
    18.6256  18.7389  19.0180  19.0755  19.4156  19.4958  19.6439  19.7763
    19.8305  19.8790  19.9450  19.9894  20.0988  20.1622  20.1882  20.3444
    20.3985  20.4722  20.5268  20.7752  20.8789  20.9799  21.0344  21.0973
    21.6612  21.7560  21.8887  21.9898  22.3977  22.5215  22.5401  22.5627
    22.7547  22.8920  22.9680  23.1982  23.3268  23.4180  23.4398  23.4702
    23.4773  23.6868  24.2568  24.4944  24.7265  26.2793  27.5659  28.9744
    29.5169  30.0407  30.6509  30.8288  31.2273  31.3916  32.0663  32.1785
    33.9803  35.1471

          k = 0.4995 0.0649 0.1992 ( 19424 PWs)   bands (ev):

   -75.7716 -75.7515 -75.7075 -55.6254 -55.6113 -55.5945 -55.5918 -55.5518
   -55.5406 -55.5210 -44.1910 -44.1780 -44.1762 -44.1731 -44.1686 -44.1639
   -44.1633 -44.1601 -44.1547 -44.1536 -44.1520 -44.1416 -44.1407 -44.1376
   -44.1218 -44.1091 -44.1070 -44.1059 -44.0946 -44.0939 -44.0896 -29.9812
   -29.9213 -29.8886 -29.8717 -29.8619 -29.8500 -29.7963 -29.7875 -29.7230
   -23.7165 -23.6814 -23.6658 -23.6450 -23.5592 -23.5468 -23.5186 -23.4992
   -23.4464 -23.4306 -23.3814 -23.3751 -23.3641 -23.3422 -23.3271 -23.3120
   -23.3029 -23.2916 -23.2840 -23.2774 -23.2510  16.2405  16.7413  17.0722
    17.2037  17.2791  17.5171  17.7031  17.8439  18.0124  18.1163  18.3543
    18.6029  18.7722  18.9775  19.1347  19.4483  19.5146  19.6149  19.7588
    19.8040  19.8703  19.9323  19.9663  20.0121  20.1196  20.1810  20.2497
    20.3526  20.3822  20.4736  20.6872  21.0737  21.1975  21.3567  21.3876
    21.6278  21.8471  21.9034  21.9978  22.1863  22.2371  22.3386  22.5605
    22.6005  22.8372  22.9246  23.1647  23.3003  23.4186  23.4410  23.4835
    23.4917  23.7616  24.6177  24.7128  24.8317  25.7835  28.0584  28.9158
    29.3755  29.8124  30.7437  30.8818  31.2250  31.3139  31.6740  32.5026
    33.4716  35.2346

          k = 0.3896-0.0177-0.1992 ( 19404 PWs)   bands (ev):

   -75.7716 -75.7515 -75.7075 -55.6258 -55.6113 -55.5938 -55.5918 -55.5518
   -55.5408 -55.5210 -44.1910 -44.1780 -44.1762 -44.1731 -44.1686 -44.1639
   -44.1633 -44.1601 -44.1547 -44.1536 -44.1520 -44.1416 -44.1407 -44.1376
   -44.1218 -44.1091 -44.1070 -44.1059 -44.0946 -44.0939 -44.0896 -29.9812
   -29.9211 -29.8886 -29.8716 -29.8620 -29.8500 -29.7963 -29.7876 -29.7230
   -23.7166 -23.6771 -23.6658 -23.6479 -23.5575 -23.5469 -23.5141 -23.4958
   -23.4721 -23.4301 -23.3767 -23.3706 -23.3584 -23.3396 -23.3271 -23.3121
   -23.3006 -23.2928 -23.2877 -23.2788 -23.2501  16.1692  16.6896  17.0020
    17.1383  17.3864  17.6223  17.8205  17.8588  17.9227  18.2946  18.3704
    18.6260  18.7381  18.9422  19.0716  19.3856  19.4607  19.6361  19.7648
    19.8075  19.8275  19.9025  19.9807  20.0641  20.1503  20.1909  20.3088
    20.4548  20.5224  20.6184  20.7744  20.9405  20.9668  21.0970  21.2206
    21.4220  21.4390  21.7121  21.9738  22.4477  22.5541  22.9294  23.0206
    23.0744  23.0999  23.1112  23.2014  23.3249  23.3569  23.3850  23.4485
    23.4598  23.6069  23.6879  24.2529  24.2800  26.2788  27.5705  28.9773
    29.6605  30.1182  30.7019  31.0852  31.2310  31.4044  32.1379  33.4040
    33.6607  34.0560

          k = 0.4263 0.0098-0.0664 ( 19412 PWs)   bands (ev):

   -75.7716 -75.7515 -75.7075 -55.6259 -55.6113 -55.5937 -55.5918 -55.5518
   -55.5409 -55.5210 -44.1910 -44.1780 -44.1762 -44.1731 -44.1686 -44.1639
   -44.1633 -44.1601 -44.1547 -44.1536 -44.1520 -44.1416 -44.1407 -44.1376
   -44.1218 -44.1091 -44.1070 -44.1059 -44.0946 -44.0939 -44.0896 -29.9812
   -29.9211 -29.8886 -29.8716 -29.8621 -29.8500 -29.7963 -29.7876 -29.7230
   -23.7166 -23.6767 -23.6657 -23.6476 -23.5565 -23.5473 -23.5140 -23.4960
   -23.4757 -23.4299 -23.3770 -23.3694 -23.3579 -23.3377 -23.3271 -23.3120
   -23.2995 -23.2941 -23.2886 -23.2791 -23.2499  16.1515  16.6924  17.0290
    17.1166  17.2735  17.6553  17.8324  17.8634  18.0347  18.3474  18.4495
    18.6037  18.7708  18.9458  18.9993  19.2992  19.4823  19.6229  19.7017
    19.8095  19.8441  19.9060  19.9840  20.0076  20.0738  20.1661  20.2481
    20.3009  20.4102  20.7424  20.8642  20.9824  21.1455  21.2717  21.2953
    21.4041  21.6395  21.6900  21.9318  22.2396  22.4353  22.8095  23.1124
    23.1397  23.1592  23.1827  23.2667  23.3100  23.3162  23.3478  23.4048
    23.4334  23.4759  23.7621  24.0371  24.6263  25.7822  28.0645  28.9253
    29.4552  30.0554  30.8499  31.2185  31.2945  31.4185  32.4902  32.8892
    33.4765  34.3857

          k = 0.4629 0.1802 0.0664 ( 19401 PWs)   bands (ev):

   -75.7716 -75.7512 -75.7077 -55.6236 -55.6110 -55.5947 -55.5927 -55.5506
   -55.5406 -55.5232 -44.1910 -44.1780 -44.1762 -44.1731 -44.1686 -44.1639
   -44.1633 -44.1601 -44.1547 -44.1536 -44.1520 -44.1416 -44.1407 -44.1376
   -44.1218 -44.1091 -44.1070 -44.1059 -44.0946 -44.0939 -44.0896 -29.9576
   -29.9208 -29.8879 -29.8716 -29.8619 -29.8490 -29.7972 -29.7880 -29.7474
   -23.6973 -23.6759 -23.6501 -23.6377 -23.5575 -23.5374 -23.5115 -23.4972
   -23.4516 -23.4373 -23.3894 -23.3804 -23.3617 -23.3442 -23.3325 -23.3199
   -23.3045 -23.2998 -23.2945 -23.2791 -23.2629  16.5056  16.8264  17.2059
    17.3816  17.4891  17.7071  17.8257  18.0034  18.1188  18.2649  18.5622
    18.6591  18.8020  19.0235  19.0857  19.3266  19.3973  19.5049  19.5579
    19.6115  19.6829  19.8691  19.9845  20.0439  20.1104  20.2038  20.2870
    20.3684  20.4616  20.5556  20.6416  20.9485  21.0164  21.0481  21.1335
    21.5319  21.6765  21.7288  21.7833  21.8851  21.9641  22.0214  22.4801
    22.8290  22.9646  23.0381  23.0822  23.1402  23.1623  23.2386  23.3472
    23.4855  23.6470  23.7892  25.5086  25.5922  26.2133  27.4526  27.8535
    29.3400  30.0206  30.5274  31.2747  31.8393  32.2660  32.5906  33.3379
    34.6317  35.4019

          k = 0.4995 0.2077 0.1992 ( 19410 PWs)   bands (ev):

   -75.7716 -75.7513 -75.7077 -55.6236 -55.6109 -55.5946 -55.5927 -55.5508
   -55.5406 -55.5231 -44.1910 -44.1780 -44.1762 -44.1731 -44.1686 -44.1639
   -44.1633 -44.1601 -44.1547 -44.1536 -44.1520 -44.1416 -44.1407 -44.1376
   -44.1218 -44.1091 -44.1070 -44.1059 -44.0946 -44.0939 -44.0896 -29.9576
   -29.9208 -29.8879 -29.8716 -29.8619 -29.8490 -29.7972 -29.7879 -29.7474
   -23.6971 -23.6766 -23.6497 -23.6376 -23.5569 -23.5334 -23.5163 -23.4992
   -23.4521 -23.4397 -23.3877 -23.3745 -23.3615 -23.3413 -23.3311 -23.3171
   -23.3113 -23.3025 -23.2938 -23.2782 -23.2646  16.5001  16.9009  17.2248
    17.3697  17.4485  17.7059  17.8354  17.9489  18.0773  18.2455  18.3503
    18.6451  18.8740  19.0262  19.1871  19.4377  19.5157  19.5911  19.6476
    19.6925  19.7594  19.8249  19.9018  20.0505  20.1246  20.1757  20.2649
    20.3891  20.4621  20.4869  20.6022  20.8197  20.8769  21.0609  21.1012
    21.5064  21.6061  21.7062  21.7462  21.8105  21.9056  22.0355  22.4073
    22.8374  22.9558  23.0334  23.0958  23.1068  23.3159  23.3549  23.4113
    23.4544  23.7076  24.9605  25.1847  25.4621  25.5461  26.3380  28.8568
    29.9291  30.3216  30.7967  31.3773  31.7878  32.0645  32.4264  32.6422
    34.0134  34.5390

          k = 0.3896 0.1251-0.1992 ( 19394 PWs)   bands (ev):

   -75.7716 -75.7512 -75.7077 -55.6241 -55.6109 -55.5945 -55.5923 -55.5506
   -55.5410 -55.5231 -44.1910 -44.1780 -44.1762 -44.1731 -44.1686 -44.1639
   -44.1633 -44.1601 -44.1547 -44.1536 -44.1520 -44.1416 -44.1407 -44.1376
   -44.1218 -44.1091 -44.1070 -44.1059 -44.0946 -44.0939 -44.0896 -29.9576
   -29.9207 -29.8879 -29.8716 -29.8620 -29.8490 -29.7972 -29.7881 -29.7474
   -23.6968 -23.6738 -23.6496 -23.6388 -23.5551 -23.5346 -23.5140 -23.4944
   -23.4732 -23.4401 -23.3752 -23.3730 -23.3618 -23.3446 -23.3360 -23.3187
   -23.3072 -23.2956 -23.2916 -23.2804 -23.2678  16.4004  16.8782  17.1913
    17.2990  17.3763  17.8404  17.9459  18.0787  18.1231  18.3438  18.4660
    18.6349  18.8847  19.0083  19.1496  19.3349  19.5429  19.5612  19.6389
    19.6716  19.7320  19.7915  19.8423  19.9002  19.9607  20.1332  20.2223
    20.3635  20.4380  20.4771  20.8367  20.8975  21.0370  21.1424  21.1757
    21.5297  21.5766  21.6162  21.7147  21.7500  21.9037  22.2628  22.6368
    22.6614  22.7504  22.8319  22.9589  23.0802  23.3209  23.3508  23.4856
    24.0690  24.2177  24.6366  24.8610  24.9433  25.1708  26.4887  28.7466
    30.2067  30.6285  31.0185  31.3215  31.8171  32.4011  32.6475  33.1674
    34.0988  34.4115

          k = 0.4263 0.1526-0.0664 ( 19393 PWs)   bands (ev):

   -75.7716 -75.7512 -75.7077 -55.6241 -55.6109 -55.5945 -55.5923 -55.5505
   -55.5409 -55.5233 -44.1910 -44.1780 -44.1762 -44.1731 -44.1686 -44.1639
   -44.1633 -44.1601 -44.1547 -44.1536 -44.1520 -44.1416 -44.1407 -44.1376
   -44.1218 -44.1091 -44.1070 -44.1059 -44.0946 -44.0939 -44.0896 -29.9576
   -29.9206 -29.8879 -29.8716 -29.8620 -29.8491 -29.7972 -29.7881 -29.7474
   -23.6967 -23.6736 -23.6504 -23.6382 -23.5559 -23.5381 -23.5085 -23.4932
   -23.4732 -23.4372 -23.3819 -23.3745 -23.3613 -23.3466 -23.3395 -23.3183
   -23.2994 -23.2972 -23.2912 -23.2815 -23.2660  16.4075  16.8040  17.1295
    17.3012  17.5328  17.8278  18.0021  18.0628  18.1129  18.3828  18.5680
    18.6834  18.7788  18.9951  19.0821  19.3069  19.3766  19.4438  19.5765
    19.6574  19.7128  19.8152  19.8777  19.9459  20.0441  20.1725  20.2958
    20.3693  20.4624  20.5754  20.8045  20.8738  20.9116  21.0590  21.1413
    21.5479  21.6738  21.7536  21.7834  22.0025  22.0307  22.2155  22.5830
    22.6818  22.7730  22.8531  22.9803  23.0889  23.1267  23.3695  23.4546
    23.6413  23.9976  24.1562  24.7382  24.9455  26.3616  27.4606  27.8656
    29.1452  30.3038  30.8000  31.4031  32.2720  32.7758  33.3163  33.4851
    34.0399  34.5639

          k = 0.4629 0.3230 0.0664 ( 19401 PWs)   bands (ev):

   -75.7716 -75.7508 -75.7082 -55.6203 -55.6096 -55.5989 -55.5913 -55.5497
   -55.5384 -55.5283 -44.1910 -44.1780 -44.1762 -44.1731 -44.1686 -44.1639
   -44.1633 -44.1601 -44.1547 -44.1536 -44.1520 -44.1416 -44.1407 -44.1376
   -44.1218 -44.1091 -44.1070 -44.1059 -44.0946 -44.0939 -44.0896 -29.9202
   -29.8978 -29.8861 -29.8716 -29.8618 -29.8474 -29.8089 -29.7988 -29.7887
   -23.6762 -23.6503 -23.6300 -23.6168 -23.5669 -23.5105 -23.4986 -23.4812
   -23.4526 -23.4412 -23.4269 -23.3844 -23.3665 -23.3600 -23.3493 -23.3342
   -23.3193 -23.3120 -23.3010 -23.2824 -23.2682  16.9194  17.2251  17.6168
    17.7625  17.8113  17.9225  18.0961  18.2168  18.4391  18.5337  18.7096
    18.7629  18.9348  19.0101  19.1028  19.1543  19.2077  19.2787  19.3710
    19.4531  19.4854  19.8453  19.8670  19.9334  20.0078  20.0693  20.1366
    20.3443  20.4508  20.5301  20.6027  20.6964  20.7849  20.8965  21.0125
    21.1144  21.1471  21.2410  21.4097  21.4651  21.5187  21.6901  22.2535
    22.4052  22.4211  22.7336  22.8561  23.1197  23.1639  23.2738  23.6599
    23.7761  24.0183  24.3794  25.4099  26.1581  26.7536  27.0229  27.1978
    28.3557  30.3805  31.0244  31.6791  32.7195  33.8585  34.4324  34.7744
    34.9748  35.1777

          k = 0.4995 0.3505 0.1992 ( 19406 PWs)   bands (ev):

   -75.7716 -75.7508 -75.7082 -55.6203 -55.6096 -55.5988 -55.5913 -55.5498
   -55.5384 -55.5281 -44.1910 -44.1780 -44.1762 -44.1731 -44.1686 -44.1639
   -44.1633 -44.1601 -44.1547 -44.1536 -44.1520 -44.1416 -44.1407 -44.1376
   -44.1218 -44.1091 -44.1070 -44.1059 -44.0946 -44.0939 -44.0896 -29.9202
   -29.8978 -29.8860 -29.8716 -29.8619 -29.8474 -29.8089 -29.7988 -29.7887
   -23.6769 -23.6508 -23.6275 -23.6169 -23.5698 -23.5092 -23.4972 -23.4779
   -23.4614 -23.4448 -23.4225 -23.3751 -23.3708 -23.3626 -23.3451 -23.3277
   -23.3214 -23.3120 -23.3085 -23.2806 -23.2700  16.9526  17.2854  17.5898
    17.7203  17.8536  17.9300  18.0690  18.1768  18.2834  18.3637  18.6484
    18.7693  18.9702  19.1081  19.1893  19.2413  19.3205  19.3885  19.4997
    19.5269  19.6402  19.7536  19.8335  19.8819  19.9528  19.9888  20.0811
    20.2453  20.4547  20.5380  20.5823  20.6936  20.7439  20.8694  20.9674
    21.0529  21.0699  21.2339  21.3348  21.5854  21.6680  21.8240  22.0276
    22.1198  22.5420  22.7276  22.7963  23.0863  23.3135  23.3858  23.6034
    24.2302  24.4833  24.7055  24.7831  25.1811  26.4174  27.1351  27.9768
    28.7191  30.1960  30.9986  32.1421  32.5480  32.8704  34.5215  34.7910
    35.1212  35.3010

          k = 0.3896 0.2679-0.1992 ( 19398 PWs)   bands (ev):

   -75.7716 -75.7508 -75.7082 -55.6207 -55.6095 -55.5989 -55.5909 -55.5493
   -55.5389 -55.5282 -44.1910 -44.1780 -44.1762 -44.1731 -44.1686 -44.1639
   -44.1633 -44.1601 -44.1547 -44.1536 -44.1520 -44.1416 -44.1407 -44.1376
   -44.1218 -44.1091 -44.1070 -44.1059 -44.0946 -44.0939 -44.0896 -29.9201
   -29.8978 -29.8860 -29.8716 -29.8619 -29.8474 -29.8089 -29.7988 -29.7888
   -23.6722 -23.6550 -23.6276 -23.6170 -23.5637 -23.5109 -23.4993 -23.4860
   -23.4614 -23.4434 -23.4114 -23.3836 -23.3764 -23.3608 -23.3519 -23.3352
   -23.3127 -23.3088 -23.2958 -23.2816 -23.2741  16.7920  17.2319  17.5466
    17.6765  17.7264  18.1136  18.3022  18.3433  18.4760  18.5900  18.6294
    18.7826  18.9563  19.0478  19.1252  19.2157  19.2912  19.3471  19.3967
    19.4940  19.5185  19.5655  19.6505  19.8357  20.0370  20.0741  20.1078
    20.2434  20.4347  20.4564  20.4788  20.5987  20.7011  20.7322  20.9945
    21.1673  21.3649  21.4727  21.5464  21.5850  21.9656  22.0327  22.1000
    22.2432  22.3035  22.4963  22.7489  22.8552  23.0629  23.1258  23.2734
    24.1401  24.9345  25.1188  25.4621  25.6431  25.7355  26.0947  27.4390
    29.0127  30.3201  31.5397  32.5111  32.9903  33.6288  34.2417  34.6959
    35.0925  35.2712

          k = 0.4263 0.2954-0.0664 ( 19414 PWs)   bands (ev):

   -75.7716 -75.7508 -75.7082 -55.6207 -55.6095 -55.5989 -55.5909 -55.5491
   -55.5389 -55.5284 -44.1910 -44.1780 -44.1762 -44.1731 -44.1686 -44.1639
   -44.1633 -44.1601 -44.1547 -44.1536 -44.1520 -44.1416 -44.1407 -44.1376
   -44.1218 -44.1091 -44.1070 -44.1059 -44.0946 -44.0939 -44.0896 -29.9201
   -29.8978 -29.8861 -29.8716 -29.8618 -29.8474 -29.8089 -29.7988 -29.7889
   -23.6709 -23.6555 -23.6302 -23.6159 -23.5625 -23.5120 -23.4984 -23.4877
   -23.4576 -23.4382 -23.4158 -23.3888 -23.3766 -23.3613 -23.3527 -23.3376
   -23.3122 -23.3043 -23.2951 -23.2842 -23.2712  16.7941  17.0848  17.5825
    17.7841  17.9711  18.1096  18.2006  18.3207  18.3969  18.5002  18.5520
    18.7926  18.9606  19.1029  19.1589  19.2236  19.3033  19.3208  19.4402
    19.5195  19.5849  19.6471  19.6859  19.8066  19.8406  19.9027  20.1090
    20.1992  20.3127  20.5178  20.6149  20.6931  20.7837  20.9317  21.0087
    21.0769  21.1991  21.3985  21.4367  21.7285  21.9222  22.1789  22.3043
    22.3434  22.3687  22.4773  22.7292  22.7606  23.0784  23.1751  23.2207
    23.3472  24.6724  25.1260  25.8556  26.0138  26.4397  26.6755  26.8667
    27.5198  30.6601  32.0360  32.8437  33.4214  33.6666  33.9071  34.2663
    34.4862  35.4262

          k = 0.4629-0.2483 0.0664 ( 19402 PWs)   bands (ev):

   -75.7716 -75.7508 -75.7082 -55.6204 -55.6096 -55.5988 -55.5912 -55.5497
   -55.5386 -55.5281 -44.1910 -44.1780 -44.1762 -44.1731 -44.1686 -44.1639
   -44.1633 -44.1601 -44.1547 -44.1536 -44.1520 -44.1416 -44.1407 -44.1376
   -44.1218 -44.1091 -44.1070 -44.1059 -44.0946 -44.0939 -44.0896 -29.9202
   -29.8978 -29.8860 -29.8716 -29.8619 -29.8474 -29.8089 -29.7988 -29.7887
   -23.6754 -23.6528 -23.6265 -23.6173 -23.5684 -23.5101 -23.4968 -23.4795
   -23.4625 -23.4454 -23.4191 -23.3759 -23.3742 -23.3623 -23.3438 -23.3304
   -23.3206 -23.3116 -23.3042 -23.2808 -23.2712  16.9043  17.2767  17.5776
    17.7761  17.8230  17.9687  18.0836  18.1824  18.2767  18.3683  18.6524
    18.7784  18.9696  19.1157  19.2194  19.3099  19.3648  19.4224  19.4871
    19.5440  19.6168  19.7432  19.7946  19.8294  19.8627  19.9436  20.0747
    20.2044  20.4767  20.5267  20.5537  20.6867  20.7969  20.8273  20.9084
    21.0298  21.1152  21.2979  21.3535  21.5903  21.8205  22.0207  22.0497
    22.1077  22.3991  22.4959  22.8879  23.0061  23.3218  23.3933  23.4470
    24.4268  24.5103  24.8754  24.9250  25.0596  26.1788  26.9073  28.1132
    28.5753  30.4044  31.3085  31.8296  32.5565  33.4773  34.4873  34.5936
    34.9697  35.3824

          k = 0.4995-0.2207 0.1992 ( 19415 PWs)   bands (ev):

   -75.7716 -75.7508 -75.7082 -55.6202 -55.6096 -55.5989 -55.5913 -55.5498
   -55.5383 -55.5282 -44.1910 -44.1780 -44.1762 -44.1731 -44.1686 -44.1639
   -44.1633 -44.1601 -44.1547 -44.1536 -44.1520 -44.1416 -44.1407 -44.1376
   -44.1218 -44.1091 -44.1070 -44.1059 -44.0946 -44.0939 -44.0896 -29.9203
   -29.8978 -29.8860 -29.8716 -29.8618 -29.8474 -29.8089 -29.7988 -29.7887
   -23.6775 -23.6494 -23.6296 -23.6165 -23.5683 -23.5103 -23.4982 -23.4793
   -23.4543 -23.4423 -23.4277 -23.3803 -23.3662 -23.3607 -23.3482 -23.3319
   -23.3215 -23.3121 -23.3049 -23.2817 -23.2679  16.9649  17.2608  17.5756
    17.7502  17.7709  17.9257  18.0782  18.2164  18.4232  18.5576  18.6739
    18.7472  18.9134  18.9960  19.1129  19.1496  19.2365  19.2734  19.3846
    19.4793  19.5149  19.8314  19.8842  19.9736  20.0091  20.1037  20.1324
    20.3996  20.4573  20.5215  20.5973  20.6785  20.7385  20.8713  21.0080
    21.1097  21.1761  21.2463  21.3903  21.4347  21.5197  21.6152  22.1305
    22.2951  22.4407  22.9128  22.9510  23.0437  23.2561  23.2972  23.6703
    23.9428  24.1654  24.2329  25.1345  25.8726  26.8922  27.0845  27.3094
    28.8073  30.3190  30.7457  31.4543  32.6309  34.0796  34.1269  34.6044
    35.0397  35.3064

          k = 0.3896-0.3034-0.1992 ( 19409 PWs)   bands (ev):

   -75.7716 -75.7508 -75.7082 -55.6206 -55.6096 -55.5989 -55.5910 -55.5492
   -55.5387 -55.5284 -44.1910 -44.1780 -44.1762 -44.1731 -44.1686 -44.1639
   -44.1633 -44.1601 -44.1547 -44.1536 -44.1520 -44.1416 -44.1407 -44.1376
   -44.1218 -44.1091 -44.1070 -44.1059 -44.0946 -44.0939 -44.0896 -29.9201
   -29.8978 -29.8861 -29.8716 -29.8618 -29.8474 -29.8089 -29.7988 -29.7888
   -23.6726 -23.6539 -23.6304 -23.6162 -23.5630 -23.5125 -23.4977 -23.4860
   -23.4559 -23.4383 -23.4196 -23.3894 -23.3725 -23.3609 -23.3525 -23.3375
   -23.3123 -23.3080 -23.2965 -23.2836 -23.2696  16.8143  17.1158  17.5919
    17.8238  17.9848  18.0132  18.1622  18.2891  18.3848  18.4824  18.5457
    18.7899  18.9530  19.1101  19.1649  19.2304  19.2848  19.3143  19.4012
    19.4975  19.6431  19.7019  19.7623  19.8035  19.8618  19.8934  20.1141
    20.2080  20.3084  20.5400  20.6339  20.7258  20.8203  20.9645  21.0088
    21.0727  21.1120  21.3018  21.4289  21.7229  21.7636  21.9815  22.3741
    22.4034  22.4435  22.5532  22.8469  22.8949  22.9817  23.0408  23.3384
    23.4554  24.4171  24.9091  26.0173  26.1287  26.4292  26.9636  27.0304
    27.3085  30.3305  32.2715  32.8639  33.2111  33.3616  33.5777  34.3986
    34.8189  35.4012

          k = 0.4263-0.2758-0.0664 ( 19390 PWs)   bands (ev):

   -75.7716 -75.7508 -75.7082 -55.6207 -55.6095 -55.5989 -55.5908 -55.5492
   -55.5390 -55.5283 -44.1910 -44.1780 -44.1762 -44.1731 -44.1686 -44.1639
   -44.1633 -44.1601 -44.1547 -44.1536 -44.1520 -44.1416 -44.1407 -44.1376
   -44.1218 -44.1091 -44.1070 -44.1059 -44.0946 -44.0939 -44.0896 -29.9201
   -29.8978 -29.8860 -29.8716 -29.8619 -29.8474 -29.8089 -29.7988 -29.7889
   -23.6709 -23.6564 -23.6281 -23.6163 -23.5625 -23.5119 -23.5000 -23.4870
   -23.4604 -23.4415 -23.4109 -23.3841 -23.3792 -23.3614 -23.3537 -23.3364
   -23.3119 -23.3053 -23.2939 -23.2827 -23.2745  16.7755  17.1650  17.5732
    17.6848  17.7358  18.1349  18.3630  18.3833  18.5301  18.6212  18.6593
    18.7620  18.9025  19.0199  19.0886  19.2152  19.2749  19.3323  19.3863
    19.4676  19.4946  19.5373  19.6000  19.8841  20.0232  20.0913  20.1252
    20.2326  20.3912  20.4300  20.5055  20.6039  20.7009  20.7738  20.9960
    21.1871  21.3940  21.5274  21.5374  21.6436  21.9523  22.0019  22.1819
    22.3329  22.3515  22.4265  22.7641  22.8733  22.8902  23.0198  23.2922
    23.8616  25.1809  25.2490  25.4336  25.7601  25.8780  26.0167  27.1567
    28.6755  30.6125  31.7823  32.5226  32.7918  34.0275  34.3270  34.5954
    35.1110  35.3846

          k = 0.4629-0.1055 0.0664 ( 19399 PWs)   bands (ev):

   -75.7716 -75.7512 -75.7077 -55.6237 -55.6109 -55.5946 -55.5926 -55.5508
   -55.5407 -55.5231 -44.1910 -44.1780 -44.1762 -44.1731 -44.1686 -44.1639
   -44.1633 -44.1601 -44.1547 -44.1536 -44.1520 -44.1416 -44.1407 -44.1376
   -44.1218 -44.1091 -44.1070 -44.1059 -44.0946 -44.0939 -44.0896 -29.9576
   -29.9208 -29.8879 -29.8716 -29.8619 -29.8490 -29.7972 -29.7880 -29.7474
   -23.6968 -23.6761 -23.6495 -23.6384 -23.5560 -23.5334 -23.5167 -23.4973
   -23.4587 -23.4403 -23.3830 -23.3755 -23.3594 -23.3418 -23.3314 -23.3171
   -23.3120 -23.3014 -23.2941 -23.2778 -23.2656  16.4741  16.8862  17.1962
    17.3770  17.5231  17.7308  17.8522  17.9572  17.9989  18.2399  18.3428
    18.6722  18.8423  18.9943  19.2570  19.4318  19.5311  19.6225  19.6472
    19.7182  19.8053  19.8554  19.9444  20.1104  20.1664  20.2026  20.2571
    20.3389  20.4445  20.4743  20.5278  20.7012  20.7422  20.9168  21.1248
    21.4698  21.6229  21.7739  21.8188  21.8955  21.9371  22.1009  22.2945
    22.8530  22.9280  22.9557  22.9875  23.1784  23.3503  23.4249  23.4795
    23.5434  23.8485  24.8203  25.2659  25.3767  25.5290  25.9898  29.0907
    29.8487  30.2525  30.7567  31.8485  31.9461  32.3871  32.3917  32.6967
    33.6684  34.2679

          k = 0.4995-0.0779 0.1992 ( 19398 PWs)   bands (ev):

   -75.7716 -75.7512 -75.7077 -55.6235 -55.6110 -55.5947 -55.5927 -55.5507
   -55.5405 -55.5232 -44.1910 -44.1780 -44.1762 -44.1731 -44.1686 -44.1639
   -44.1633 -44.1601 -44.1547 -44.1536 -44.1520 -44.1416 -44.1407 -44.1376
   -44.1218 -44.1091 -44.1070 -44.1059 -44.0946 -44.0939 -44.0896 -29.9576
   -29.9209 -29.8879 -29.8716 -29.8619 -29.8490 -29.7972 -29.7879 -29.7474
   -23.6977 -23.6763 -23.6500 -23.6371 -23.5570 -23.5371 -23.5131 -23.4987
   -23.4475 -23.4375 -23.3919 -23.3771 -23.3636 -23.3424 -23.3316 -23.3203
   -23.3060 -23.3016 -23.2946 -23.2784 -23.2627  16.5192  16.8703  17.2315
    17.3700  17.4028  17.7116  17.7858  17.9855  18.1906  18.2828  18.5189
    18.5971  18.8810  19.0074  19.1533  19.3440  19.4013  19.4435  19.5239
    19.5985  19.7407  19.8177  19.9924  20.0408  20.0917  20.1495  20.2819
    20.3262  20.4615  20.5277  20.7445  20.9041  21.2010  21.2356  21.3143
    21.5057  21.5735  21.6275  21.6530  21.7559  21.8794  21.9218  22.6548
    22.8072  22.9419  23.0332  23.0560  23.1289  23.1904  23.2336  23.3496
    23.5018  23.5399  24.1550  25.6069  25.6458  25.8497  27.1901  28.1117
    29.8244  30.0562  30.5682  31.2482  31.6204  31.9226  32.3618  33.0824
    34.7920  35.8181

          k = 0.3896-0.1606-0.1992 ( 19389 PWs)   bands (ev):

   -75.7716 -75.7512 -75.7077 -55.6239 -55.6109 -55.5945 -55.5924 -55.5505
   -55.5408 -55.5233 -44.1910 -44.1780 -44.1762 -44.1731 -44.1686 -44.1639
   -44.1633 -44.1601 -44.1547 -44.1536 -44.1520 -44.1416 -44.1407 -44.1376
   -44.1218 -44.1091 -44.1070 -44.1059 -44.0946 -44.0939 -44.0896 -29.9576
   -29.9207 -29.8879 -29.8716 -29.8619 -29.8490 -29.7972 -29.7881 -29.7474
   -23.6971 -23.6738 -23.6503 -23.6385 -23.5562 -23.5390 -23.5081 -23.4931
   -23.4685 -23.4369 -23.3832 -23.3787 -23.3602 -23.3463 -23.3382 -23.3185
   -23.3003 -23.2971 -23.2939 -23.2797 -23.2647  16.4358  16.7840  17.1368
    17.3377  17.6262  17.7809  17.9620  18.0263  18.0639  18.2722  18.5717
    18.7022  18.7591  18.9915  19.1260  19.3097  19.3650  19.4385  19.5606
    19.6199  19.8384  19.8703  19.9478  20.0172  20.0809  20.2011  20.3700
    20.4197  20.5064  20.5676  20.6813  20.7108  20.7373  20.8990  21.1419
    21.4986  21.7553  21.8152  21.8900  22.0435  22.1118  22.2182  22.4111
    22.7900  22.8541  22.8997  22.9909  23.1538  23.1649  23.3377  23.3576
    23.4453  23.7873  24.0077  24.9981  25.1518  26.7209  27.2072  28.0968
    28.7502  30.2108  30.6073  31.2900  32.2733  33.2376  33.4474  33.7000
    34.0114  34.2517

          k = 0.4263-0.1330-0.0664 ( 19406 PWs)   bands (ev):

   -75.7716 -75.7513 -75.7077 -55.6241 -55.6109 -55.5944 -55.5922 -55.5505
   -55.5410 -55.5232 -44.1910 -44.1780 -44.1762 -44.1731 -44.1686 -44.1639
   -44.1633 -44.1601 -44.1547 -44.1536 -44.1520 -44.1416 -44.1407 -44.1376
   -44.1218 -44.1091 -44.1070 -44.1059 -44.0946 -44.0939 -44.0896 -29.9576
   -29.9206 -29.8879 -29.8716 -29.8620 -29.8490 -29.7972 -29.7881 -29.7474
   -23.6969 -23.6736 -23.6495 -23.6384 -23.5543 -23.5367 -23.5119 -23.4946
   -23.4752 -23.4393 -23.3757 -23.3714 -23.3633 -23.3458 -23.3380 -23.3182
   -23.3044 -23.2963 -23.2884 -23.2827 -23.2676  16.3849  16.8711  17.2021
    17.2698  17.3233  17.8656  17.9625  18.1008  18.2209  18.3799  18.6077
    18.6217  18.9131  19.0018  19.0782  19.1823  19.4687  19.5453  19.5671
    19.6625  19.7070  19.7434  19.8257  19.9042  19.9773  20.1158  20.2155
    20.3381  20.4110  20.4989  20.8766  21.1226  21.2167  21.2722  21.3243
    21.4568  21.4999  21.5621  21.5909  21.7032  21.8905  22.3519  22.5763
    22.6645  22.8045  22.8843  22.9506  23.0585  23.1567  23.2523  23.5357
    24.2348  24.3914  24.4414  24.5910  24.6566  25.4461  26.8358  28.4465
    30.2500  30.5439  30.9611  31.5773  31.7747  32.3563  32.6165  32.8944
    34.5480  35.0452

     the Fermi energy is    23.0834 ev

!    total energy              =   -4617.05648971 Ry
     estimated scf accuracy    <          9.9E-09 Ry
     smearing contrib. (-TS)   =      -0.00565083 Ry
     internal energy E=F+TS    =   -4617.05083888 Ry

     The total energy is F=E-TS. E is the sum of the following terms:
     one-electron contribution =   -2740.81997658 Ry
     hartree contribution      =    1508.64321494 Ry
     xc contribution           =    -379.95175367 Ry
     ewald contribution        =   -3004.92232357 Ry

     convergence has been achieved in  27 iterations

     Forces acting on atoms (cartesian axes, Ry/au):

     atom    1 type  1   force =     0.00068431    0.00058983    0.00251188
     atom    2 type  1   force =    -0.00108824   -0.00071332   -0.00363846
     atom    3 type  1   force =     0.00014048    0.00020995    0.00113605
     atom    4 type  2   force =     0.00068912   -0.00064393    0.00214257
     atom    5 type  2   force =     0.00044628    0.00154407    0.00141862
     atom    6 type  2   force =     0.00004716    0.00121813    0.00011877
     atom    7 type  2   force =    -0.00054075   -0.00051207   -0.00183071
     atom    8 type  2   force =    -0.00040252   -0.00079596   -0.00129697
     atom    9 type  2   force =    -0.00011992    0.00034117   -0.00124722
     atom   10 type  2   force =     0.00014410   -0.00123786    0.00068548

     Total force =     0.006714     Total SCF correction =     0.000309


     Computing stress (Cartesian axis) and pressure

          total   stress  (Ry/bohr**3)                   (kbar)     P=      -39.95
  -0.00019365   0.00000194  -0.00001254          -28.49        0.29       -1.84
   0.00000194  -0.00035924   0.00001367            0.29      -52.85        2.01
  -0.00001254   0.00001367  -0.00026173           -1.84        2.01      -38.50


     Writing all to output data dir /home/tenant3/nexus-mat/dft/runs/dft-paper-worker-02/jobs/Pt-Rh-04_Pt3Rh7/tmp/Pt-Rh-04_Pt3Rh7.save/ :
     XML data file, charge density, pseudopotentials, collected wavefunctions

     init_run     :    415.90s CPU   1888.41s WALL (       1 calls)
     electrons    :  26780.04s CPU 101759.00s WALL (       1 calls)
     forces       :    261.01s CPU    786.66s WALL (       1 calls)
     stress       :    866.84s CPU   2615.61s WALL (       1 calls)

     Called by init_run:
     wfcinit      :    409.90s CPU   1855.68s WALL (       1 calls)
     potinit      :      0.52s CPU      2.65s WALL (       1 calls)
     hinit0       :      0.73s CPU      3.37s WALL (       1 calls)

     Called by electrons:
     c_bands      :  23934.63s CPU  90977.24s WALL (      27 calls)
     sum_band     :   2735.08s CPU  10263.75s WALL (      27 calls)
     v_of_rho     :      9.50s CPU     38.91s WALL (      28 calls)
     newd         :    103.21s CPU    497.28s WALL (      28 calls)
     mix_rho      :      1.65s CPU      6.08s WALL (      27 calls)

     Called by c_bands:
     init_us_2    :     67.99s CPU    252.54s WALL (    3990 calls)
     cegterg      :  23659.02s CPU  89950.73s WALL (    1890 calls)

     Called by *egterg:
     cdiaghg      :    167.31s CPU    635.74s WALL (    4562 calls)
     h_psi        :  10184.54s CPU  38574.69s WALL (    4632 calls)
     s_psi        :   2936.90s CPU  11046.82s WALL (    4632 calls)
     g_psi        :     10.92s CPU     41.01s WALL (    2672 calls)

     Called by h_psi:
     h_psi:calbec :   3571.64s CPU  13448.45s WALL (    4632 calls)
     vloc_psi     :   3657.38s CPU  13865.70s WALL (    4632 calls)
                                        0.00s GPU  (    4632 calls)
     add_vuspsi   :   2940.27s CPU  11060.23s WALL (    4632 calls)

     General routines
     calbec       :   6337.53s CPU  22929.67s WALL (    7712 calls)
     fft          :      6.83s CPU     25.27s WALL (     387 calls)
     ffts         :      0.30s CPU      1.09s WALL (      55 calls)
     fftw         :   4031.59s CPU  15349.37s WALL ( 1270138 calls)
     interpolate  :      0.75s CPU      2.85s WALL (      28 calls)


     PWSCF        :      7h52m CPU   1d 5h44m WALL


   This run was terminated on:  10:56:53  22Jul2026            

=------------------------------------------------------------------------------=
   JOB DONE.
=------------------------------------------------------------------------------=
