
     Program PWSCF v.7.5 starts on 20Jul2026 at 17:49:43 

     This program is part of the open-source Quantum ESPRESSO suite
     for quantum simulation of materials; please cite
         "P. Giannozzi et al., J. Phys.:Condens. Matter 21 395502 (2009);
         "P. Giannozzi et al., J. Phys.:Condens. Matter 29 465901 (2017);
         "P. Giannozzi et al., J. Chem. Phys. 152 154105 (2020);
          URL http://www.quantum-espresso.org", 
     in publications or presentations arising from this work. More details at
     http://www.quantum-espresso.org/quote

     Serial multi-threaded version, running on    1 processor cores
     16175 MiB available memory on the printing compute node when the environment starts

     Reading input from /home/tenant3/nexus-mat/dft/runs/dft-paper-worker-02/jobs/Pt-Pd-Rh-01_Pd2Pt5Rh3/input.in

     Current dimensions of program PWSCF are:
     Max number of different atomic species (ntypx) = 10
     Max number of k-points (npk) =  40000
     Max angular momentum in pseudopotentials (lmaxx) =  4
     file Pt.pbe-spfn-rrkjus_psl.1.0.0.UPF: wavefunction(s)  5P renormalized


     G-vector sticks info
     --------------------
     sticks:   dense  smooth     PW     G-vecs:    dense   smooth      PW
     Sum        4293    2161    605               452131   160063   23743

     Using Slab Decomposition



     bravais-lattice index     =            0
     lattice parameter (alat)  =       7.4038  a.u.
     unit-cell volume          =    1025.9497 (a.u.)^3
     number of atoms/cell      =           10
     number of atomic types    =            3
     number of electrons       =       247.00
     number of Kohn-Sham states=          149
     kinetic-energy cutoff     =     110.0000  Ry
     charge density cutoff     =     880.0000  Ry
     scf convergence threshold =      1.0E-08
     mixing beta               =       0.3000
     number of iterations used =            8  plain     mixing
     Exchange-correlation= PBE
                           (   1   4   3   4   0   0   0)

     celldm(1)=   7.403762  celldm(2)=   0.000000  celldm(3)=   0.000000
     celldm(4)=   0.000000  celldm(5)=   0.000000  celldm(6)=   0.000000

     crystal axes: (cart. coord. in units of alat)
               a(1) = (   0.999999   0.000000   0.001434 )  
               a(2) = (  -0.498365   1.122168   0.006682 )  
               a(3) = (   0.000000   0.000000   2.252740 )  

     reciprocal axes: (cart. coord. in units 2 pi/alat)
               b(1) = (  1.000001  0.444109 -0.000000 )  
               b(2) = (  0.000000  0.891132  0.000000 )  
               b(3) = ( -0.000637 -0.002926  0.443904 )  


     PseudoPot. # 1 for Pd read from file:
     /home/tenant3/nexus-mat/dft/pseudo/SSSP_1.3.0_PBE_precision/Pd_ONCV_PBE-1.0.oncvpsp.upf
     MD5 check sum: eb77f42b51d86fb18e25f68156a31cf1
     Pseudo is Norm-conserving, Zval = 18.0
     Generated using ONCVPSP code by D. R. Hamann
     Using radial grid of 1410 points,  6 beta functions with: 
                l(1) =   0
                l(2) =   0
                l(3) =   1
                l(4) =   1
                l(5) =   2
                l(6) =   2

     PseudoPot. # 2 for Pt read from file:
     /home/tenant3/nexus-mat/dft/pseudo/SSSP_1.3.0_PBE_precision/Pt.pbe-spfn-rrkjus_psl.1.0.0.UPF
     MD5 check sum: ed006ba81d2b6b3b17616bb61ae12f04
     Pseudo is Ultrasoft + core correction, Zval = 32.0
     Generated using "atomic" code by A. Dal Corso  v.5.1
     Using radial grid of 1277 points,  8 beta functions with: 
                l(1) =   0
                l(2) =   0
                l(3) =   1
                l(4) =   1
                l(5) =   2
                l(6) =   2
                l(7) =   3
                l(8) =   3
     Q(r) pseudized with 0 coefficients 


     PseudoPot. # 3 for Rh read from file:
     /home/tenant3/nexus-mat/dft/pseudo/SSSP_1.3.0_PBE_precision/Rh_ONCV_PBE-1.0.oncvpsp.upf
     MD5 check sum: ba07c69523b14cacd10683cd4c4284c1
     Pseudo is Norm-conserving, Zval = 17.0
     Generated using ONCVPSP code by D. R. Hamann
     Using radial grid of 1442 points,  6 beta functions with: 
                l(1) =   0
                l(2) =   0
                l(3) =   1
                l(4) =   1
                l(5) =   2
                l(6) =   2

     atomic species   valence    mass     pseudopotential
     Pd               18.00   106.42000     Pd( 1.00)
     Pt               32.00   195.08400     Pt( 1.00)
     Rh               17.00   102.90549     Rh( 1.00)

     No symmetry found



   Cartesian axes

     site n.     atom                  positions (alat units)
         1        Pd     tau(   1) = (  -0.0603939   0.4826751   0.2484129  )
         2        Pd     tau(   2) = (   0.9390441   0.0286894   1.5970913  )
         3        Pt     tau(   3) = (   0.4397118   0.4828645   1.3766406  )
         4        Pt     tau(   4) = (   0.4392897   0.2575722   2.0490648  )
         5        Pt     tau(   5) = (  -0.0606838   0.2533032   0.9222956  )
         6        Pt     tau(   6) = (   0.4402580   0.9312413   0.0265587  )
         7        Pt     tau(   7) = (   0.4399894   0.7078185   0.7024432  )
         8        Rh     tau(   8) = (  -0.0600105   0.7053319   1.8240255  )
         9        Rh     tau(   9) = (  -0.0597031   0.9279245   1.1494240  )
        10        Rh     tau(  10) = (   0.4389591   0.0321726   0.4753903  )

     number of k points=    72  Marzari-Vanderbilt smearing, width (Ry)=  0.0200
                       cart. coord. in units 2pi/alat
        k(    1) = (   0.0625001   0.1020178   0.0000000), wk =   0.0277778
        k(    2) = (   0.0622878   0.1010425   0.1479679), wk =   0.0277778
        k(    3) = (   0.0627123   0.1029931  -0.1479679), wk =   0.0277778
        k(    4) = (   0.0625001   0.2505398   0.0000000), wk =   0.0277778
        k(    5) = (   0.0622878   0.2495645   0.1479679), wk =   0.0277778
        k(    6) = (   0.0627123   0.2515151  -0.1479679), wk =   0.0277778
        k(    7) = (   0.0625001   0.3990618   0.0000000), wk =   0.0277778
        k(    8) = (   0.0622878   0.3980865   0.1479679), wk =   0.0277778
        k(    9) = (   0.0627123   0.4000371  -0.1479679), wk =   0.0277778
        k(   10) = (   0.0625001  -0.3435481   0.0000000), wk =   0.0277778
        k(   11) = (   0.0622878  -0.3445234   0.1479679), wk =   0.0277778
        k(   12) = (   0.0627123  -0.3425729  -0.1479679), wk =   0.0277778
        k(   13) = (   0.0625001  -0.1950262   0.0000000), wk =   0.0277778
        k(   14) = (   0.0622878  -0.1960014   0.1479679), wk =   0.0277778
        k(   15) = (   0.0627123  -0.1940509  -0.1479679), wk =   0.0277778
        k(   16) = (   0.0625001  -0.0465042   0.0000000), wk =   0.0277778
        k(   17) = (   0.0622878  -0.0474795   0.1479679), wk =   0.0277778
        k(   18) = (   0.0627123  -0.0455289  -0.1479679), wk =   0.0277778
        k(   19) = (   0.1875002   0.1575315   0.0000000), wk =   0.0277778
        k(   20) = (   0.1872879   0.1565562   0.1479679), wk =   0.0277778
        k(   21) = (   0.1877124   0.1585068  -0.1479679), wk =   0.0277778
        k(   22) = (   0.1875002   0.3060535   0.0000000), wk =   0.0277778
        k(   23) = (   0.1872879   0.3050782   0.1479679), wk =   0.0277778
        k(   24) = (   0.1877124   0.3070288  -0.1479679), wk =   0.0277778
        k(   25) = (   0.1875002   0.4545755   0.0000000), wk =   0.0277778
        k(   26) = (   0.1872879   0.4536002   0.1479679), wk =   0.0277778
        k(   27) = (   0.1877124   0.4555508  -0.1479679), wk =   0.0277778
        k(   28) = (   0.1875002  -0.2880345   0.0000000), wk =   0.0277778
        k(   29) = (   0.1872879  -0.2890098   0.1479679), wk =   0.0277778
        k(   30) = (   0.1877124  -0.2870592  -0.1479679), wk =   0.0277778
        k(   31) = (   0.1875002  -0.1395125   0.0000000), wk =   0.0277778
        k(   32) = (   0.1872879  -0.1404878   0.1479679), wk =   0.0277778
        k(   33) = (   0.1877124  -0.1385372  -0.1479679), wk =   0.0277778
        k(   34) = (   0.1875002   0.0090095   0.0000000), wk =   0.0277778
        k(   35) = (   0.1872879   0.0080342   0.1479679), wk =   0.0277778
        k(   36) = (   0.1877124   0.0099848  -0.1479679), wk =   0.0277778
        k(   37) = (   0.3125003   0.2130452   0.0000000), wk =   0.0277778
        k(   38) = (   0.3122881   0.2120699   0.1479679), wk =   0.0277778
        k(   39) = (   0.3127126   0.2140204  -0.1479679), wk =   0.0277778
        k(   40) = (   0.3125003   0.3615671   0.0000000), wk =   0.0277778
        k(   41) = (   0.3122881   0.3605919   0.1479679), wk =   0.0277778
        k(   42) = (   0.3127126   0.3625424  -0.1479679), wk =   0.0277778
        k(   43) = (   0.3125003   0.5100891   0.0000000), wk =   0.0277778
        k(   44) = (   0.3122881   0.5091138   0.1479679), wk =   0.0277778
        k(   45) = (   0.3127126   0.5110644  -0.1479679), wk =   0.0277778
        k(   46) = (   0.3125003  -0.2325208   0.0000000), wk =   0.0277778
        k(   47) = (   0.3122881  -0.2334961   0.1479679), wk =   0.0277778
        k(   48) = (   0.3127126  -0.2315455  -0.1479679), wk =   0.0277778
        k(   49) = (   0.3125003  -0.0839988   0.0000000), wk =   0.0277778
        k(   50) = (   0.3122881  -0.0849741   0.1479679), wk =   0.0277778
        k(   51) = (   0.3127126  -0.0830235  -0.1479679), wk =   0.0277778
        k(   52) = (   0.3125003   0.0645232   0.0000000), wk =   0.0277778
        k(   53) = (   0.3122881   0.0635479   0.1479679), wk =   0.0277778
        k(   54) = (   0.3127126   0.0654985  -0.1479679), wk =   0.0277778
        k(   55) = (   0.4375005   0.2685588   0.0000000), wk =   0.0277778
        k(   56) = (   0.4372882   0.2675835   0.1479679), wk =   0.0277778
        k(   57) = (   0.4377127   0.2695341  -0.1479679), wk =   0.0277778
        k(   58) = (   0.4375005   0.4170808   0.0000000), wk =   0.0277778
        k(   59) = (   0.4372882   0.4161055   0.1479679), wk =   0.0277778
        k(   60) = (   0.4377127   0.4180561  -0.1479679), wk =   0.0277778
        k(   61) = (   0.4375005   0.5656028   0.0000000), wk =   0.0277778
        k(   62) = (   0.4372882   0.5646275   0.1479679), wk =   0.0277778
        k(   63) = (   0.4377127   0.5665781  -0.1479679), wk =   0.0277778
        k(   64) = (   0.4375005  -0.1770072   0.0000000), wk =   0.0277778
        k(   65) = (   0.4372882  -0.1779824   0.1479679), wk =   0.0277778
        k(   66) = (   0.4377127  -0.1760319  -0.1479679), wk =   0.0277778
        k(   67) = (   0.4375005  -0.0284852   0.0000000), wk =   0.0277778
        k(   68) = (   0.4372882  -0.0294605   0.1479679), wk =   0.0277778
        k(   69) = (   0.4377127  -0.0275099  -0.1479679), wk =   0.0277778
        k(   70) = (   0.4375005   0.1200368   0.0000000), wk =   0.0277778
        k(   71) = (   0.4372882   0.1190615   0.1479679), wk =   0.0277778
        k(   72) = (   0.4377127   0.1210121  -0.1479679), wk =   0.0277778

     Dense  grid:   452131 G-vectors     FFT dimensions: (  72,  90, 160)

     Smooth grid:   160063 G-vectors     FFT dimensions: (  50,  64, 120)

     Estimated max dynamical RAM per process >       7.53 GB

     Initial potential from superposition of free atoms

     starting charge     246.9973, renormalised to     247.0000
     Starting wfcs are  135 randomized atomic wfcs +   14 random wfcs

     total cpu time spent up to now is     1151.4 secs

     Self-consistent Calculation

     iteration #  1     ecut=   110.00 Ry     beta= 0.30
     Davidson diagonalization with overlap
     ethr =  1.00E-02,  avg # of iterations =  3.1

     Threshold (ethr) on eigenvalues was too large:
     Diagonalizing with lowered threshold

     Davidson diagonalization with overlap
     ethr =  9.26E-04,  avg # of iterations =  1.0

     total cpu time spent up to now is     5198.1 secs

     total energy              =   -6320.56782085 Ry
     estimated scf accuracy    <       2.29119479 Ry

     iteration #  2     ecut=   110.00 Ry     beta= 0.30
     Davidson diagonalization with overlap
     ethr =  9.28E-04,  avg # of iterations =  2.5

     total cpu time spent up to now is     7485.9 secs

     total energy              =   -6320.28148450 Ry
     estimated scf accuracy    <      15.46760340 Ry

     iteration #  3     ecut=   110.00 Ry     beta= 0.30
     Davidson diagonalization with overlap
     ethr =  9.28E-04,  avg # of iterations =  2.8

     total cpu time spent up to now is     9502.9 secs

     total energy              =   -6320.88987134 Ry
     estimated scf accuracy    <      18.41338143 Ry

     iteration #  4     ecut=   110.00 Ry     beta= 0.30
     Davidson diagonalization with overlap
     ethr =  9.28E-04,  avg # of iterations =  1.6

     total cpu time spent up to now is    11228.1 secs

     total energy              =   -6321.38395564 Ry
     estimated scf accuracy    <       2.09466528 Ry

     iteration #  5     ecut=   110.00 Ry     beta= 0.30
     Davidson diagonalization with overlap
     ethr =  8.48E-04,  avg # of iterations =  1.0

     total cpu time spent up to now is    12782.7 secs

     total energy              =   -6321.43095141 Ry
     estimated scf accuracy    <       0.44478400 Ry

     iteration #  6     ecut=   110.00 Ry     beta= 0.30
     Davidson diagonalization with overlap
     ethr =  1.80E-04,  avg # of iterations =  1.2

     total cpu time spent up to now is    14413.2 secs

     total energy              =   -6321.44547369 Ry
     estimated scf accuracy    <       0.09479337 Ry

     iteration #  7     ecut=   110.00 Ry     beta= 0.30
     Davidson diagonalization with overlap
     ethr =  3.84E-05,  avg # of iterations =  1.4

     total cpu time spent up to now is    16136.8 secs

     total energy              =   -6321.44487877 Ry
     estimated scf accuracy    <       0.01554766 Ry

     iteration #  8     ecut=   110.00 Ry     beta= 0.30
     Davidson diagonalization with overlap
     ethr =  6.29E-06,  avg # of iterations =  6.4

     total cpu time spent up to now is    18058.8 secs

     total energy              =   -6321.44526241 Ry
     estimated scf accuracy    <       0.02237382 Ry

     iteration #  9     ecut=   110.00 Ry     beta= 0.30
     Davidson diagonalization with overlap
     ethr =  6.29E-06,  avg # of iterations =  1.2

     total cpu time spent up to now is    19829.1 secs

     total energy              =   -6321.44659407 Ry
     estimated scf accuracy    <       0.01494100 Ry

     iteration # 10     ecut=   110.00 Ry     beta= 0.30
     Davidson diagonalization with overlap
     ethr =  6.05E-06,  avg # of iterations =  1.0

     total cpu time spent up to now is    21564.5 secs

     total energy              =   -6321.44657362 Ry
     estimated scf accuracy    <       0.00623371 Ry

     iteration # 11     ecut=   110.00 Ry     beta= 0.30
     Davidson diagonalization with overlap
     ethr =  2.52E-06,  avg # of iterations =  1.3

     total cpu time spent up to now is    23991.6 secs

     total energy              =   -6321.44665839 Ry
     estimated scf accuracy    <       0.00080806 Ry

     iteration # 12     ecut=   110.00 Ry     beta= 0.30
     Davidson diagonalization with overlap
     ethr =  3.27E-07,  avg # of iterations =  1.2

     total cpu time spent up to now is    25434.4 secs

     total energy              =   -6321.44668481 Ry
     estimated scf accuracy    <       0.00028690 Ry

     iteration # 13     ecut=   110.00 Ry     beta= 0.30
     Davidson diagonalization with overlap
     ethr =  1.16E-07,  avg # of iterations =  1.0

     total cpu time spent up to now is    26761.4 secs

     total energy              =   -6321.44670951 Ry
     estimated scf accuracy    <       0.00001001 Ry

     iteration # 14     ecut=   110.00 Ry     beta= 0.30
     Davidson diagonalization with overlap
     ethr =  4.05E-09,  avg # of iterations =  2.0

     total cpu time spent up to now is    28200.3 secs

     total energy              =   -6321.44670821 Ry
     estimated scf accuracy    <       0.00002592 Ry

     iteration # 15     ecut=   110.00 Ry     beta= 0.30
     Davidson diagonalization with overlap
     ethr =  4.05E-09,  avg # of iterations =  1.5

     total cpu time spent up to now is    29318.4 secs

     total energy              =   -6321.44670888 Ry
     estimated scf accuracy    <       0.00001540 Ry

     iteration # 16     ecut=   110.00 Ry     beta= 0.30
     Davidson diagonalization with overlap
     ethr =  4.05E-09,  avg # of iterations =  2.0

     total cpu time spent up to now is    30516.2 secs

     total energy              =   -6321.44670661 Ry
     estimated scf accuracy    <       0.00011949 Ry

     iteration # 17     ecut=   110.00 Ry     beta= 0.30
     Davidson diagonalization with overlap
     ethr =  4.05E-09,  avg # of iterations =  1.0

     total cpu time spent up to now is    31530.3 secs

     total energy              =   -6321.44671034 Ry
     estimated scf accuracy    <       0.00000789 Ry

     iteration # 18     ecut=   110.00 Ry     beta= 0.30
     Davidson diagonalization with overlap
     ethr =  3.19E-09,  avg # of iterations =  1.0

     total cpu time spent up to now is    32538.4 secs

     total energy              =   -6321.44671067 Ry
     estimated scf accuracy    <       0.00000061 Ry

     iteration # 19     ecut=   110.00 Ry     beta= 0.30
     Davidson diagonalization with overlap
     ethr =  2.48E-10,  avg # of iterations =  1.3

     total cpu time spent up to now is    34573.1 secs

     total energy              =   -6321.44671069 Ry
     estimated scf accuracy    <       0.00000060 Ry

     iteration # 20     ecut=   110.00 Ry     beta= 0.30
     Davidson diagonalization with overlap
     ethr =  2.42E-10,  avg # of iterations =  1.0

     total cpu time spent up to now is    35589.1 secs

     total energy              =   -6321.44671072 Ry
     estimated scf accuracy    <       0.00000019 Ry

     iteration # 21     ecut=   110.00 Ry     beta= 0.30
     Davidson diagonalization with overlap
     ethr =  7.86E-11,  avg # of iterations =  1.0

     total cpu time spent up to now is    36604.9 secs

     total energy              =   -6321.44671072 Ry
     estimated scf accuracy    <       0.00000065 Ry

     iteration # 22     ecut=   110.00 Ry     beta= 0.30
     Davidson diagonalization with overlap
     ethr =  7.86E-11,  avg # of iterations =  1.0

     total cpu time spent up to now is    37637.3 secs

     total energy              =   -6321.44671074 Ry
     estimated scf accuracy    <       0.00000011 Ry

     iteration # 23     ecut=   110.00 Ry     beta= 0.30
     Davidson diagonalization with overlap
     ethr =  4.26E-11,  avg # of iterations =  1.0

     total cpu time spent up to now is    38641.9 secs

     total energy              =   -6321.44671074 Ry
     estimated scf accuracy    <       0.00000002 Ry

     iteration # 24     ecut=   110.00 Ry     beta= 0.30
     Davidson diagonalization with overlap
     ethr =  7.72E-12,  avg # of iterations =  1.0

     total cpu time spent up to now is    39652.0 secs

     End of self-consistent calculation

          k = 0.0625 0.1020 0.0000 ( 19993 PWs)   bands (ev):

   -75.5413 -75.4770 -75.4280 -75.3997 -75.3810 -61.4111 -61.3820 -55.4218
   -55.3241 -55.3179 -43.9539 -43.9420 -43.9374 -43.9350 -43.9253 -43.9234
   -43.9226 -43.8928 -43.8853 -43.8751 -43.8621 -43.8502 -43.8495 -43.8482
   -43.8361 -43.8259 -43.8210 -43.8151 -43.8098 -43.8056 -43.8042 -43.8035
   -43.8030 -43.7980 -43.7918 -43.7904 -43.7843 -43.7807 -43.7779 -43.7719
   -43.7647 -43.7640 -43.7638 -43.7632 -43.7626 -29.7550 -29.6945 -29.6796
   -29.6243 -29.6000 -29.5928 -29.5585 -29.5477 -29.5434 -29.5071 -29.4992
   -29.4925 -29.4526 -29.4460 -29.4218 -27.1308 -27.1212 -27.1207 -27.1030
   -27.0944 -27.0914 -23.3491 -23.2844 -23.2620 -23.1891 -23.1857 -23.1838
   -23.1699 -23.1635 -23.1212  14.5191  16.2976  16.9029  17.0789  17.3804
    17.6715  17.8159  18.0950  18.1230  18.2197  18.3076  18.5041  18.5427
    18.5863  18.6560  18.7941  18.8244  18.8579  19.2373  19.3747  19.4207
    19.4748  19.6500  19.8892  19.9631  20.0676  20.1922  20.3888  20.5132
    20.6737  20.7662  21.0271  21.1904  21.3561  21.4480  21.5403  21.5799
    21.7337  21.8587  21.9259  22.1375  22.3179  22.5106  22.7188  22.7421
    22.8200  22.9823  23.1097  23.1413  23.2157  23.4453  23.4909  23.5409
    25.5741  26.0350  27.4965  27.7047  28.0634  29.3673  29.6160  30.6449
    31.3738  31.9720  32.0613  32.5920  33.5409  33.6078  33.7590  34.1619
    34.5446  34.7382  35.0250  35.3359  35.6922

          k = 0.0623 0.1010 0.1480 ( 19971 PWs)   bands (ev):

   -75.5413 -75.4770 -75.4280 -75.3997 -75.3810 -61.4111 -61.3820 -55.4218
   -55.3241 -55.3179 -43.9539 -43.9420 -43.9374 -43.9350 -43.9253 -43.9234
   -43.9226 -43.8928 -43.8853 -43.8751 -43.8621 -43.8502 -43.8495 -43.8482
   -43.8361 -43.8259 -43.8210 -43.8151 -43.8098 -43.8056 -43.8042 -43.8035
   -43.8030 -43.7980 -43.7918 -43.7904 -43.7843 -43.7807 -43.7779 -43.7719
   -43.7647 -43.7640 -43.7638 -43.7632 -43.7626 -29.7549 -29.6939 -29.6796
   -29.6254 -29.6009 -29.5926 -29.5567 -29.5488 -29.5439 -29.5070 -29.4992
   -29.4878 -29.4574 -29.4465 -29.4202 -27.1308 -27.1211 -27.1207 -27.1030
   -27.0944 -27.0915 -23.3495 -23.2844 -23.2620 -23.1877 -23.1852 -23.1841
   -23.1703 -23.1638 -23.1219  14.7724  15.5566  17.1964  17.4516  17.5535
    17.6423  17.8648  17.9426  17.9727  18.0412  18.1809  18.3200  18.3773
    18.4732  18.5374  18.7340  19.1059  19.1555  19.2492  19.4375  19.4930
    19.7310  19.7937  20.0208  20.1605  20.1804  20.2601  20.3177  20.3778
    20.5010  20.8805  21.0577  21.2594  21.2828  21.4368  21.5372  21.6966
    21.8050  21.9359  22.0632  22.1470  22.2133  22.2422  22.3906  22.4434
    22.4734  22.8387  23.1216  23.2724  23.3010  23.3964  23.6142  23.7620
    25.5766  25.7107  26.9071  27.4563  29.5052  29.5879  29.9662  30.6691
    31.0398  31.9419  32.4824  32.8323  33.2109  33.2653  33.8885  33.9899
    34.2851  34.4300  34.9999  35.0830  35.4884

          k = 0.0627 0.1030-0.1480 ( 20004 PWs)   bands (ev):

   -75.5413 -75.4770 -75.4280 -75.3997 -75.3810 -61.4111 -61.3820 -55.4218
   -55.3241 -55.3179 -43.9539 -43.9420 -43.9374 -43.9350 -43.9253 -43.9234
   -43.9226 -43.8928 -43.8853 -43.8751 -43.8621 -43.8502 -43.8495 -43.8482
   -43.8361 -43.8259 -43.8210 -43.8151 -43.8098 -43.8056 -43.8042 -43.8035
   -43.8030 -43.7980 -43.7918 -43.7904 -43.7843 -43.7807 -43.7779 -43.7719
   -43.7647 -43.7640 -43.7638 -43.7632 -43.7626 -29.7544 -29.6922 -29.6788
   -29.6352 -29.5979 -29.5908 -29.5554 -29.5476 -29.5448 -29.5068 -29.4999
   -29.4866 -29.4564 -29.4462 -29.4220 -27.1308 -27.1211 -27.1206 -27.1030
   -27.0944 -27.0915 -23.3496 -23.2844 -23.2620 -23.1871 -23.1855 -23.1841
   -23.1701 -23.1635 -23.1225  14.7825  15.5516  17.1395  17.4976  17.5520
    17.6521  17.6980  17.8694  18.0956  18.1363  18.2045  18.2584  18.4251
    18.5594  18.7183  18.7695  19.0267  19.0702  19.2219  19.4125  19.4721
    19.6683  19.7087  19.7904  20.0369  20.1731  20.3832  20.4460  20.5664
    20.7287  20.8674  20.9507  21.0034  21.2898  21.4460  21.5611  21.5785
    21.6965  21.9120  22.0369  22.1698  22.2031  22.2789  22.3960  22.5063
    22.8468  22.9030  23.1286  23.2715  23.4312  23.5573  23.6235  23.9912
    24.9219  25.2794  26.4243  28.9846  29.3400  29.7862  29.8664  30.2759
    30.7317  31.3913  32.1655  33.0482  33.2563  33.6381  33.8374  34.1271
    34.5129  34.9649  35.4516  35.5152  35.6563

          k = 0.0625 0.2505 0.0000 ( 19994 PWs)   bands (ev):

   -75.5409 -75.4775 -75.4280 -75.3982 -75.3825 -61.4111 -61.3819 -55.4218
   -55.3241 -55.3179 -43.9539 -43.9420 -43.9374 -43.9350 -43.9253 -43.9234
   -43.9226 -43.8929 -43.8853 -43.8751 -43.8621 -43.8502 -43.8495 -43.8482
   -43.8361 -43.8259 -43.8210 -43.8151 -43.8098 -43.8056 -43.8042 -43.8035
   -43.8030 -43.7980 -43.7918 -43.7904 -43.7843 -43.7807 -43.7779 -43.7719
   -43.7647 -43.7640 -43.7638 -43.7632 -43.7626 -29.7416 -29.6961 -29.6806
   -29.6253 -29.5930 -29.5869 -29.5665 -29.5558 -29.5441 -29.5063 -29.5032
   -29.4921 -29.4560 -29.4399 -29.4256 -27.1312 -27.1212 -27.1205 -27.1034
   -27.0944 -27.0912 -23.3493 -23.2841 -23.2632 -23.1883 -23.1856 -23.1835
   -23.1710 -23.1646 -23.1215  15.1314  16.6708  17.0953  17.1967  17.3166
    17.4043  17.5761  17.6080  17.6853  17.9648  18.0434  18.2313  18.2523
    18.4456  18.6784  18.8048  18.9469  18.9768  19.0364  19.3572  19.3909
    19.6147  19.7147  19.9440  20.0839  20.2141  20.3689  20.5812  20.7874
    21.2586  21.3339  21.3865  21.4276  21.4961  21.5635  21.6361  21.7890
    21.8589  21.9407  21.9990  22.0764  22.2264  22.5087  22.5688  22.6366
    22.7473  22.7982  22.9085  23.1528  23.3139  23.3790  23.6127  23.6733
    24.1283  24.5176  25.9940  26.8281  27.3331  28.1392  30.5710  31.4692
    31.6668  32.2853  32.5661  32.8971  33.7349  34.2162  34.4029  34.7558
    35.2163  35.3257  35.6844  35.9062  35.9881

          k = 0.0623 0.2496 0.1480 ( 20009 PWs)   bands (ev):

   -75.5409 -75.4775 -75.4280 -75.3982 -75.3825 -61.4111 -61.3819 -55.4218
   -55.3241 -55.3179 -43.9539 -43.9420 -43.9374 -43.9350 -43.9253 -43.9234
   -43.9226 -43.8929 -43.8853 -43.8751 -43.8621 -43.8502 -43.8495 -43.8482
   -43.8361 -43.8259 -43.8210 -43.8151 -43.8098 -43.8056 -43.8042 -43.8035
   -43.8030 -43.7980 -43.7918 -43.7904 -43.7843 -43.7807 -43.7779 -43.7719
   -43.7647 -43.7640 -43.7638 -43.7632 -43.7626 -29.7428 -29.6969 -29.6817
   -29.6126 -29.5980 -29.5890 -29.5664 -29.5551 -29.5479 -29.5059 -29.5014
   -29.4950 -29.4577 -29.4401 -29.4227 -27.1312 -27.1212 -27.1204 -27.1034
   -27.0944 -27.0913 -23.3494 -23.2841 -23.2632 -23.1874 -23.1851 -23.1838
   -23.1714 -23.1652 -23.1215  15.3457  16.0945  17.2644  17.3747  17.4705
    17.5519  17.6320  17.7365  17.7523  17.8361  17.8949  17.9263  18.1303
    18.1451  18.3008  18.4953  19.0738  19.1626  19.2524  19.4244  19.5548
    19.6774  20.2257  20.3267  20.3809  20.4363  20.5994  20.6198  20.9163
    20.9706  21.0375  21.2351  21.2792  21.3870  21.4400  21.5229  21.8486
    21.9344  21.9918  22.0510  22.0751  22.2139  22.3214  22.4798  22.5456
    22.6430  22.7016  22.8303  22.9493  23.3380  23.3892  23.5609  23.6119
    23.7382  25.1478  26.1774  26.8212  27.9703  28.0282  29.2993  31.6283
    32.1351  32.4235  33.0503  33.5567  33.6399  34.1241  34.2479  34.3555
    35.1542  35.3415  35.4482  35.7062  35.8376

          k = 0.0627 0.2515-0.1480 ( 19998 PWs)   bands (ev):

   -75.5409 -75.4775 -75.4280 -75.3982 -75.3825 -61.4111 -61.3819 -55.4218
   -55.3241 -55.3179 -43.9539 -43.9420 -43.9374 -43.9350 -43.9253 -43.9234
   -43.9226 -43.8929 -43.8853 -43.8751 -43.8621 -43.8502 -43.8495 -43.8482
   -43.8361 -43.8259 -43.8210 -43.8151 -43.8098 -43.8056 -43.8042 -43.8035
   -43.8030 -43.7980 -43.7918 -43.7904 -43.7843 -43.7807 -43.7779 -43.7719
   -43.7647 -43.7640 -43.7638 -43.7632 -43.7626 -29.7414 -29.6960 -29.6809
   -29.6230 -29.5973 -29.5877 -29.5629 -29.5545 -29.5504 -29.5056 -29.4988
   -29.4827 -29.4692 -29.4400 -29.4226 -27.1312 -27.1212 -27.1204 -27.1034
   -27.0944 -27.0913 -23.3496 -23.2841 -23.2632 -23.1867 -23.1853 -23.1837
   -23.1712 -23.1649 -23.1223  15.3886  16.0427  17.2270  17.2855  17.3693
    17.5954  17.6602  17.7430  17.7857  17.8767  17.9249  18.0432  18.1872
    18.1985  18.3604  18.4311  18.8891  19.1788  19.3076  19.4078  19.6038
    19.6788  20.0568  20.2056  20.3474  20.4704  20.6346  20.6576  20.7762
    20.8390  20.8941  21.1927  21.2659  21.5276  21.6161  21.7493  21.8083
    21.8670  21.9259  21.9938  22.1010  22.2377  22.3839  22.5244  22.5711
    22.6770  22.9345  23.0784  23.2311  23.2926  23.3732  23.4916  23.5482
    24.3601  24.6004  24.7191  27.1119  27.9810  29.2211  29.5965  30.3624
    31.7346  31.9710  33.0350  33.6978  34.0424  34.1996  34.6543  34.9063
    35.1960  35.4511  35.7888  36.2601  36.3566

          k = 0.0625 0.3991 0.0000 ( 20035 PWs)   bands (ev):

   -75.5406 -75.4778 -75.4280 -75.3968 -75.3839 -61.4111 -61.3819 -55.4218
   -55.3241 -55.3179 -43.9539 -43.9420 -43.9374 -43.9350 -43.9253 -43.9234
   -43.9226 -43.8929 -43.8854 -43.8751 -43.8621 -43.8502 -43.8495 -43.8482
   -43.8361 -43.8259 -43.8210 -43.8151 -43.8098 -43.8056 -43.8042 -43.8035
   -43.8030 -43.7980 -43.7918 -43.7904 -43.7843 -43.7807 -43.7779 -43.7720
   -43.7646 -43.7640 -43.7638 -43.7632 -43.7626 -29.7280 -29.6999 -29.6825
   -29.6190 -29.5946 -29.5843 -29.5710 -29.5604 -29.5462 -29.5069 -29.5037
   -29.4876 -29.4652 -29.4356 -29.4267 -27.1314 -27.1212 -27.1205 -27.1037
   -27.0943 -27.0912 -23.3494 -23.2839 -23.2641 -23.1878 -23.1853 -23.1832
   -23.1719 -23.1654 -23.1218  16.0493  16.7197  16.9635  17.0163  17.2956
    17.3061  17.3825  17.6145  17.7409  17.9132  17.9638  18.1590  18.2552
    18.2763  18.4759  18.5436  18.6614  18.8126  18.8913  19.2009  19.8263
    19.8715  19.9814  20.0385  20.0583  20.3534  20.4546  20.4866  20.6098
    20.8858  21.2782  21.3402  21.5087  21.5830  21.6054  21.7017  21.7647
    21.8597  22.2100  22.3229  22.4062  22.5014  22.7133  22.7831  22.9887
    23.0738  23.1740  23.2214  23.2818  23.3194  23.4177  23.4861  23.5742
    23.6847  23.8385  24.1678  25.6275  25.9370  28.9767  29.8307  30.5022
    31.0029  32.6595  33.4295  33.9302  34.1077  35.1165  35.2120  35.3589
    35.5138  35.6483  36.1771  36.5137  36.8931

          k = 0.0623 0.3981 0.1480 ( 20019 PWs)   bands (ev):

   -75.5406 -75.4778 -75.4280 -75.3968 -75.3839 -61.4111 -61.3819 -55.4218
   -55.3241 -55.3179 -43.9539 -43.9420 -43.9374 -43.9350 -43.9253 -43.9234
   -43.9226 -43.8929 -43.8854 -43.8751 -43.8621 -43.8502 -43.8495 -43.8482
   -43.8361 -43.8259 -43.8210 -43.8151 -43.8098 -43.8056 -43.8042 -43.8035
   -43.8030 -43.7980 -43.7918 -43.7904 -43.7843 -43.7807 -43.7779 -43.7720
   -43.7646 -43.7640 -43.7638 -43.7632 -43.7626 -29.7304 -29.7001 -29.6827
   -29.6096 -29.5941 -29.5853 -29.5706 -29.5587 -29.5485 -29.5159 -29.5047
   -29.4921 -29.4567 -29.4360 -29.4261 -27.1314 -27.1212 -27.1204 -27.1036
   -27.0943 -27.0913 -23.3494 -23.2839 -23.2640 -23.1871 -23.1850 -23.1836
   -23.1722 -23.1661 -23.1215  16.1647  16.7629  16.9795  17.1262  17.1980
    17.4011  17.4526  17.5200  17.5860  17.7126  17.8174  18.0055  18.0919
    18.3408  18.4836  18.5715  18.6203  18.8808  18.9425  19.3654  19.4586
    19.7201  19.8740  20.3283  20.4481  20.4948  20.5240  20.8723  21.0108
    21.1366  21.2772  21.3023  21.3528  21.5474  21.6232  21.7146  21.8273
    21.9367  22.2452  22.3476  22.4121  22.4839  22.5379  22.5760  22.6255
    22.7156  22.8458  22.9069  23.0528  23.1412  23.4050  23.5233  23.5960
    23.6297  23.7081  25.6232  25.8795  26.8230  27.0383  28.6837  31.6988
    32.5254  32.7346  33.3415  34.0275  34.2521  34.5969  34.9433  35.2355
    35.8841  35.9514  36.0243  36.2405  36.3873

          k = 0.0627 0.4000-0.1480 ( 20019 PWs)   bands (ev):

   -75.5406 -75.4778 -75.4280 -75.3968 -75.3839 -61.4111 -61.3819 -55.4218
   -55.3241 -55.3179 -43.9539 -43.9420 -43.9374 -43.9350 -43.9253 -43.9234
   -43.9226 -43.8929 -43.8854 -43.8751 -43.8621 -43.8502 -43.8495 -43.8482
   -43.8361 -43.8259 -43.8210 -43.8151 -43.8098 -43.8056 -43.8042 -43.8035
   -43.8030 -43.7980 -43.7918 -43.7904 -43.7843 -43.7807 -43.7779 -43.7720
   -43.7646 -43.7640 -43.7638 -43.7632 -43.7626 -29.7297 -29.7001 -29.6829
   -29.6082 -29.5994 -29.5854 -29.5677 -29.5583 -29.5525 -29.5094 -29.5044
   -29.4907 -29.4618 -29.4357 -29.4254 -27.1314 -27.1211 -27.1205 -27.1036
   -27.0943 -27.0913 -23.3495 -23.2839 -23.2640 -23.1868 -23.1851 -23.1836
   -23.1722 -23.1660 -23.1217  16.2442  16.6130  17.0018  17.1070  17.2749
    17.3879  17.4201  17.5200  17.5750  17.6521  17.8514  18.0638  18.1410
    18.2634  18.4665  18.6608  18.7518  18.8678  18.9937  19.2835  19.3384
    19.5502  19.9000  20.2649  20.5480  20.6654  20.7731  20.8547  20.8939
    21.0998  21.1890  21.2553  21.3134  21.4310  21.5917  21.7023  21.7205
    22.0517  22.2233  22.2980  22.3381  22.3590  22.4903  22.7646  22.8071
    22.8788  22.9682  23.0154  23.1454  23.1702  23.2741  23.3600  23.4127
    23.6222  24.6794  24.8791  25.1692  26.7729  27.8038  28.8155  31.0147
    32.2222  32.9362  33.9223  34.1460  34.5851  34.7255  34.8659  35.1561
    35.3594  35.8506  36.0523  36.6551  36.8932

          k = 0.0625-0.3435 0.0000 ( 20012 PWs)   bands (ev):

   -75.5406 -75.4777 -75.4280 -75.3972 -75.3835 -61.4111 -61.3819 -55.4218
   -55.3241 -55.3179 -43.9539 -43.9420 -43.9374 -43.9350 -43.9253 -43.9234
   -43.9226 -43.8929 -43.8854 -43.8751 -43.8621 -43.8502 -43.8495 -43.8482
   -43.8361 -43.8259 -43.8210 -43.8151 -43.8098 -43.8056 -43.8042 -43.8035
   -43.8030 -43.7980 -43.7918 -43.7904 -43.7843 -43.7807 -43.7779 -43.7719
   -43.7646 -43.7640 -43.7638 -43.7632 -43.7626 -29.7317 -29.6974 -29.6834
   -29.6219 -29.5936 -29.5829 -29.5706 -29.5593 -29.5458 -29.5069 -29.5043
   -29.4892 -29.4619 -29.4370 -29.4259 -27.1314 -27.1212 -27.1204 -27.1036
   -27.0943 -27.0912 -23.3494 -23.2840 -23.2637 -23.1881 -23.1853 -23.1834
   -23.1716 -23.1652 -23.1217  15.7016  16.8524  16.9955  17.0500  17.3226
    17.3601  17.4000  17.5786  17.7620  17.9180  17.9516  18.0610  18.2505
    18.2976  18.5628  18.7037  18.7665  18.8282  18.8892  19.3145  19.6511
    19.7090  19.9258  19.9492  20.0854  20.4312  20.4648  20.4959  20.9053
    21.0466  21.1384  21.2714  21.4988  21.5444  21.5734  21.7566  21.7977
    21.9066  22.0815  22.1892  22.2423  22.5161  22.7408  22.8002  22.8707
    22.9494  22.9939  23.0511  23.1842  23.3056  23.3755  23.4601  23.4800
    23.7171  24.0047  24.8220  26.1686  26.2341  28.5832  30.2825  30.7123
    31.1309  32.6456  33.2384  33.6410  34.1657  34.8091  34.9250  34.9531
    35.5150  35.7114  35.8886  35.9481  36.8080

          k = 0.0623-0.3445 0.1480 ( 20015 PWs)   bands (ev):

   -75.5406 -75.4777 -75.4280 -75.3972 -75.3835 -61.4111 -61.3819 -55.4218
   -55.3241 -55.3179 -43.9539 -43.9420 -43.9374 -43.9350 -43.9253 -43.9234
   -43.9226 -43.8929 -43.8854 -43.8751 -43.8621 -43.8502 -43.8495 -43.8482
   -43.8361 -43.8259 -43.8210 -43.8151 -43.8098 -43.8056 -43.8042 -43.8035
   -43.8030 -43.7980 -43.7918 -43.7904 -43.7843 -43.7807 -43.7779 -43.7719
   -43.7646 -43.7640 -43.7638 -43.7632 -43.7626 -29.7326 -29.6976 -29.6841
   -29.6126 -29.5994 -29.5848 -29.5663 -29.5578 -29.5534 -29.5051 -29.5027
   -29.4888 -29.4662 -29.4369 -29.4236 -27.1314 -27.1212 -27.1204 -27.1036
   -27.0943 -27.0913 -23.3495 -23.2840 -23.2637 -23.1870 -23.1850 -23.1836
   -23.1718 -23.1657 -23.1220  15.9383  16.4422  17.0643  17.1714  17.3448
    17.4418  17.4653  17.5767  17.6566  17.7531  17.9348  18.0025  18.1181
    18.2153  18.3216  18.6265  18.8018  18.9909  19.1609  19.3114  19.3580
    19.6470  19.8823  20.2896  20.5637  20.6261  20.7158  20.8224  20.9747
    21.0522  21.0778  21.1726  21.2169  21.4449  21.5045  21.7306  21.9664
    22.0781  22.1201  22.1489  22.2217  22.3515  22.4525  22.5800  22.7319
    22.8495  22.9217  23.0649  23.0874  23.2269  23.2956  23.3411  23.6236
    23.7442  24.4032  24.8896  25.7030  27.0876  28.3367  29.0354  30.6918
    32.0867  32.8060  33.9381  34.0330  34.3621  34.5267  34.7331  35.1663
    35.3605  36.0093  36.1379  36.1972  36.3163

          k = 0.0627-0.3426-0.1480 ( 20025 PWs)   bands (ev):

   -75.5406 -75.4777 -75.4280 -75.3972 -75.3835 -61.4111 -61.3819 -55.4218
   -55.3241 -55.3179 -43.9539 -43.9420 -43.9374 -43.9350 -43.9253 -43.9234
   -43.9226 -43.8929 -43.8854 -43.8751 -43.8621 -43.8502 -43.8495 -43.8482
   -43.8361 -43.8259 -43.8210 -43.8151 -43.8098 -43.8056 -43.8042 -43.8035
   -43.8030 -43.7980 -43.7918 -43.7904 -43.7843 -43.7807 -43.7779 -43.7719
   -43.7646 -43.7640 -43.7638 -43.7632 -43.7626 -29.7338 -29.6977 -29.6841
   -29.6117 -29.5924 -29.5848 -29.5715 -29.5583 -29.5480 -29.5134 -29.5050
   -29.4930 -29.4561 -29.4372 -29.4248 -27.1314 -27.1212 -27.1204 -27.1036
   -27.0943 -27.0913 -23.3494 -23.2840 -23.2637 -23.1871 -23.1852 -23.1838
   -23.1719 -23.1658 -23.1214  15.8646  16.5511  17.1083  17.2025  17.2616
    17.4633  17.5279  17.5778  17.6637  17.7730  17.8484  17.9529  18.1012
    18.2128  18.3426  18.4801  18.7691  18.9770  19.0961  19.4321  19.5618
    19.6009  20.2158  20.3477  20.4048  20.4296  20.5156  20.7497  20.9522
    20.9674  21.1864  21.3281  21.4235  21.4943  21.6333  21.7682  22.0449
    22.0890  22.1255  22.2312  22.2694  22.3393  22.3955  22.4491  22.5299
    22.7088  22.8187  22.9720  23.0435  23.0611  23.1226  23.3738  23.6019
    23.6657  24.1924  26.0519  26.5714  26.7495  27.1443  28.8122  32.0101
    32.5089  32.6484  33.0458  33.8628  34.0058  34.4832  34.7547  35.1882
    35.3259  35.4898  35.9092  35.9329  36.2256

          k = 0.0625-0.1950 0.0000 ( 19990 PWs)   bands (ev):

   -75.5411 -75.4773 -75.4280 -75.3988 -75.3818 -61.4111 -61.3820 -55.4218
   -55.3241 -55.3179 -43.9539 -43.9420 -43.9374 -43.9350 -43.9253 -43.9234
   -43.9226 -43.8928 -43.8853 -43.8751 -43.8621 -43.8502 -43.8495 -43.8482
   -43.8361 -43.8259 -43.8210 -43.8151 -43.8098 -43.8056 -43.8042 -43.8035
   -43.8030 -43.7980 -43.7918 -43.7904 -43.7843 -43.7807 -43.7779 -43.7719
   -43.7647 -43.7640 -43.7638 -43.7632 -43.7626 -29.7471 -29.6926 -29.6833
   -29.6257 -29.5966 -29.5878 -29.5610 -29.5528 -29.5456 -29.5062 -29.5016
   -29.4935 -29.4538 -29.4427 -29.4234 -27.1311 -27.1213 -27.1204 -27.1033
   -27.0943 -27.0912 -23.3492 -23.2843 -23.2626 -23.1889 -23.1855 -23.1837
   -23.1704 -23.1641 -23.1214  14.8503  16.5078  17.0292  17.2226  17.3818
    17.4741  17.5413  17.7680  17.8054  18.0545  18.1638  18.2956  18.3835
    18.5838  18.6688  18.8102  18.9506  18.9922  19.1337  19.3082  19.3696
    19.6244  19.7308  19.7724  20.0995  20.1619  20.2764  20.5486  20.6704
    21.1903  21.3194  21.3280  21.3923  21.4068  21.4367  21.5170  21.5504
    21.6685  21.8396  21.8985  22.3374  22.4153  22.4654  22.5637  22.6387
    22.6901  22.7870  22.8985  23.0462  23.3134  23.4150  23.5969  23.6352
    24.7539  24.9224  26.7083  27.1460  27.9851  28.1004  30.7581  31.4327
    31.6782  31.8027  32.4737  32.7104  33.1939  34.1254  34.2447  34.6738
    34.8101  35.0664  35.3070  35.4936  35.9424

          k = 0.0623-0.1960 0.1480 ( 19998 PWs)   bands (ev):

   -75.5411 -75.4773 -75.4280 -75.3988 -75.3818 -61.4111 -61.3820 -55.4218
   -55.3241 -55.3179 -43.9539 -43.9420 -43.9374 -43.9350 -43.9253 -43.9234
   -43.9226 -43.8928 -43.8853 -43.8751 -43.8621 -43.8502 -43.8495 -43.8482
   -43.8361 -43.8259 -43.8210 -43.8151 -43.8098 -43.8056 -43.8042 -43.8035
   -43.8030 -43.7980 -43.7918 -43.7904 -43.7843 -43.7807 -43.7779 -43.7719
   -43.7647 -43.7640 -43.7638 -43.7632 -43.7626 -29.7466 -29.6919 -29.6828
   -29.6289 -29.5984 -29.5876 -29.5572 -29.5527 -29.5495 -29.5060 -29.4992
   -29.4836 -29.4652 -29.4425 -29.4214 -27.1311 -27.1212 -27.1204 -27.1034
   -27.0943 -27.0913 -23.3496 -23.2843 -23.2626 -23.1874 -23.1850 -23.1839
   -23.1706 -23.1642 -23.1224  15.1102  15.8239  17.2227  17.3789  17.4551
    17.6123  17.7284  17.7862  17.8847  17.9531  18.0178  18.0805  18.2810
    18.3489  18.3766  18.4914  18.9590  19.2158  19.3448  19.4425  19.5292
    19.7564  19.9142  20.1704  20.2667  20.3492  20.5631  20.5842  20.7384
    20.7770  20.8837  21.1521  21.2330  21.2871  21.3496  21.5266  21.7871
    21.8239  21.9337  22.0786  22.1052  22.2017  22.3163  22.4187  22.5046
    22.6743  23.0696  23.1836  23.2285  23.3740  23.4463  23.6045  23.8036
    24.2767  24.7553  25.2814  27.9584  28.6694  29.5905  29.9284  30.3135
    31.1626  31.5403  32.6158  33.3485  33.8890  33.9512  34.2037  34.6839
    34.8966  35.2646  35.5977  36.1407  36.1912

          k = 0.0627-0.1941-0.1480 ( 20019 PWs)   bands (ev):

   -75.5411 -75.4773 -75.4280 -75.3988 -75.3818 -61.4111 -61.3820 -55.4218
   -55.3241 -55.3179 -43.9539 -43.9420 -43.9374 -43.9350 -43.9253 -43.9234
   -43.9226 -43.8928 -43.8853 -43.8751 -43.8621 -43.8502 -43.8495 -43.8482
   -43.8361 -43.8259 -43.8210 -43.8151 -43.8098 -43.8056 -43.8042 -43.8035
   -43.8030 -43.7980 -43.7918 -43.7904 -43.7843 -43.7807 -43.7779 -43.7719
   -43.7647 -43.7640 -43.7638 -43.7632 -43.7626 -29.7477 -29.6934 -29.6838
   -29.6152 -29.6025 -29.5899 -29.5607 -29.5529 -29.5476 -29.5064 -29.4974
   -29.4940 -29.4592 -29.4426 -29.4204 -27.1311 -27.1212 -27.1204 -27.1033
   -27.0944 -27.0913 -23.3494 -23.2843 -23.2626 -23.1874 -23.1854 -23.1841
   -23.1708 -23.1645 -23.1216  15.0848  15.8480  17.3156  17.3855  17.5833
    17.6244  17.6648  17.7591  17.8700  17.9248  17.9561  18.0470  18.0682
    18.2741  18.3709  18.6052  19.1570  19.2243  19.2815  19.4093  19.5576
    19.6947  20.0833  20.2546  20.2811  20.3650  20.4793  20.6906  20.8525
    20.9106  20.9870  21.0096  21.0467  21.2672  21.3936  21.5418  21.8322
    21.8687  21.9294  22.0583  22.0854  22.1703  22.2555  22.3567  22.4852
    22.6472  22.6945  22.9377  23.0004  23.3781  23.4800  23.5325  23.7592
    24.2409  25.7128  26.0396  27.2048  28.5631  28.8243  29.7748  31.0465
    31.5369  32.2646  32.9760  33.4452  33.5673  33.7964  33.8848  34.0078
    34.7636  35.1772  35.5203  35.6530  35.8189

          k = 0.0625-0.0465 0.0000 ( 19978 PWs)   bands (ev):

   -75.5414 -75.4769 -75.4280 -75.3999 -75.3807 -61.4111 -61.3820 -55.4218
   -55.3241 -55.3179 -43.9539 -43.9420 -43.9374 -43.9350 -43.9253 -43.9234
   -43.9226 -43.8928 -43.8853 -43.8751 -43.8621 -43.8502 -43.8495 -43.8482
   -43.8361 -43.8259 -43.8210 -43.8151 -43.8098 -43.8056 -43.8042 -43.8035
   -43.8030 -43.7980 -43.7918 -43.7904 -43.7843 -43.7807 -43.7779 -43.7719
   -43.7647 -43.7640 -43.7638 -43.7632 -43.7626 -29.7573 -29.6941 -29.6799
   -29.6232 -29.6023 -29.5936 -29.5575 -29.5466 -29.5417 -29.5074 -29.4998
   -29.4910 -29.4527 -29.4474 -29.4206 -27.1307 -27.1211 -27.1208 -27.1030
   -27.0943 -27.0914 -23.3491 -23.2845 -23.2617 -23.1894 -23.1857 -23.1839
   -23.1696 -23.1633 -23.1211  14.4172  16.2301  16.8596  17.0300  17.3345
    17.8438  18.0358  18.1164  18.2732  18.3138  18.3792  18.4774  18.5248
    18.6224  18.6302  18.7456  18.8098  18.9515  19.1824  19.3372  19.4817
    19.5505  19.6748  19.8561  19.9089  19.9491  20.1179  20.2373  20.3524
    20.4114  20.7195  20.9100  21.2870  21.4075  21.4457  21.5704  21.6340
    21.6745  21.8646  21.9694  22.0148  22.1791  22.5299  22.7054  22.8008
    22.8952  23.0901  23.1457  23.1999  23.3112  23.3425  23.4179  23.5875
    25.8739  26.8573  27.6254  27.7267  28.5953  28.7649  29.9030  30.1496
    31.2117  31.9657  32.0061  32.5162  33.0686  33.3604  33.9472  34.1327
    34.4671  34.8003  35.0121  35.2409  35.4084

          k = 0.0623-0.0475 0.1480 ( 19988 PWs)   bands (ev):

   -75.5414 -75.4769 -75.4280 -75.3999 -75.3807 -61.4111 -61.3820 -55.4218
   -55.3241 -55.3179 -43.9539 -43.9420 -43.9374 -43.9350 -43.9253 -43.9234
   -43.9226 -43.8928 -43.8853 -43.8751 -43.8621 -43.8502 -43.8495 -43.8482
   -43.8361 -43.8259 -43.8210 -43.8151 -43.8098 -43.8056 -43.8042 -43.8035
   -43.8030 -43.7980 -43.7918 -43.7904 -43.7843 -43.7807 -43.7779 -43.7719
   -43.7647 -43.7640 -43.7638 -43.7632 -43.7626 -29.7568 -29.6914 -29.6793
   -29.6356 -29.5992 -29.5909 -29.5538 -29.5479 -29.5422 -29.5070 -29.5004
   -29.4876 -29.4542 -29.4475 -29.4215 -27.1307 -27.1211 -27.1207 -27.1030
   -27.0943 -27.0915 -23.3496 -23.2845 -23.2617 -23.1877 -23.1852 -23.1841
   -23.1698 -23.1633 -23.1224  14.6801  15.4665  17.1115  17.4708  17.5570
    17.6651  17.7810  17.9836  18.0383  18.2145  18.2836  18.4452  18.5818
    18.6735  18.8480  18.9491  18.9844  19.0531  19.1304  19.2598  19.4375
    19.5413  19.6187  19.8023  19.9270  19.9757  20.1867  20.3280  20.4746
    20.5472  20.9296  21.0894  21.1176  21.3518  21.4303  21.4809  21.6088
    21.6876  21.8683  21.9947  22.0883  22.1483  22.3775  22.5194  22.5594
    22.7093  22.9469  23.0223  23.3105  23.4884  23.5421  23.6569  23.8125
    25.1986  26.0094  27.1952  28.1524  28.9551  29.9907  30.4205  30.6158
    31.0217  31.2434  32.2201  32.5716  32.9226  33.3849  33.7761  34.0868
    34.4747  34.5712  35.0204  35.1906  35.3689

          k = 0.0627-0.0455-0.1480 ( 19969 PWs)   bands (ev):

   -75.5414 -75.4769 -75.4280 -75.3999 -75.3807 -61.4111 -61.3820 -55.4218
   -55.3241 -55.3179 -43.9539 -43.9420 -43.9374 -43.9350 -43.9253 -43.9234
   -43.9226 -43.8928 -43.8853 -43.8751 -43.8621 -43.8502 -43.8495 -43.8482
   -43.8361 -43.8259 -43.8210 -43.8151 -43.8098 -43.8056 -43.8042 -43.8035
   -43.8030 -43.7980 -43.7918 -43.7904 -43.7843 -43.7807 -43.7779 -43.7719
   -43.7647 -43.7640 -43.7638 -43.7632 -43.7626 -29.7570 -29.6925 -29.6795
   -29.6308 -29.6005 -29.5921 -29.5556 -29.5471 -29.5419 -29.5071 -29.5002
   -29.4874 -29.4560 -29.4472 -29.4203 -27.1307 -27.1211 -27.1207 -27.1030
   -27.0944 -27.0915 -23.3495 -23.2845 -23.2617 -23.1874 -23.1855 -23.1843
   -23.1699 -23.1634 -23.1222  14.6773  15.4654  17.1394  17.4821  17.5207
    17.6331  17.9125  17.9560  18.0866  18.1569  18.2265  18.5011  18.5855
    18.6373  18.6916  18.7786  18.9588  19.0522  19.2596  19.4329  19.5244
    19.6085  19.6915  19.7641  19.9602  19.9986  20.1815  20.2008  20.3843
    20.4378  20.9321  21.1917  21.2496  21.3702  21.4202  21.4547  21.5899
    21.7262  21.8571  22.0513  22.1269  22.1983  22.3775  22.4060  22.5041
    22.5830  22.9236  23.0368  23.3111  23.3799  23.4876  23.6164  23.7381
    25.4941  26.5589  27.1065  27.6654  28.6494  30.0835  30.3044  31.0470
    31.2146  31.5841  32.0061  32.5389  32.9903  33.1200  33.7420  34.0985
    34.1384  34.4495  34.7667  35.1234  35.4963

          k = 0.1875 0.1575 0.0000 ( 19997 PWs)   bands (ev):

   -75.5410 -75.4772 -75.4281 -75.3986 -75.3820 -61.4110 -61.3819 -55.4218
   -55.3241 -55.3179 -43.9539 -43.9420 -43.9374 -43.9350 -43.9253 -43.9234
   -43.9226 -43.8928 -43.8853 -43.8751 -43.8621 -43.8502 -43.8495 -43.8482
   -43.8361 -43.8259 -43.8210 -43.8151 -43.8098 -43.8056 -43.8042 -43.8035
   -43.8030 -43.7980 -43.7918 -43.7904 -43.7843 -43.7807 -43.7779 -43.7719
   -43.7647 -43.7640 -43.7638 -43.7632 -43.7626 -29.7521 -29.7057 -29.6720
   -29.6260 -29.6052 -29.5903 -29.5655 -29.5473 -29.5409 -29.5071 -29.4987
   -29.4918 -29.4531 -29.4430 -29.4208 -27.1308 -27.1215 -27.1208 -27.1030
   -27.0947 -27.0912 -23.3487 -23.2851 -23.2623 -23.1884 -23.1861 -23.1845
   -23.1703 -23.1640 -23.1215  15.0524  16.5377  17.0840  17.3591  17.5294
    17.6472  17.7187  17.8731  18.0603  18.1157  18.1996  18.2578  18.3489
    18.6535  18.7479  18.8968  18.9468  19.0865  19.4293  19.5559  19.7317
    19.8639  19.9862  20.0552  20.1211  20.1573  20.1874  20.2652  20.3387
    20.7522  20.8192  20.9767  21.0277  21.1063  21.1607  21.5153  21.6169
    21.6465  21.7448  21.7968  21.8505  22.0289  22.2074  22.6840  22.7563
    22.8267  22.9164  23.0617  23.1286  23.2023  23.2484  23.3869  23.5012
    25.3619  26.3617  26.9314  27.4016  27.9956  28.0333  28.8811  29.8401
    30.4558  31.0492  31.4684  32.0614  32.6726  33.5010  33.9733  34.7887
    35.1814  35.9096  36.0744  36.2916  37.0391

          k = 0.1873 0.1566 0.1480 ( 19999 PWs)   bands (ev):

   -75.5410 -75.4772 -75.4281 -75.3986 -75.3820 -61.4110 -61.3819 -55.4218
   -55.3241 -55.3178 -43.9539 -43.9420 -43.9374 -43.9350 -43.9253 -43.9234
   -43.9226 -43.8928 -43.8853 -43.8751 -43.8621 -43.8502 -43.8495 -43.8482
   -43.8361 -43.8258 -43.8210 -43.8151 -43.8098 -43.8056 -43.8042 -43.8035
   -43.8030 -43.7980 -43.7918 -43.7904 -43.7843 -43.7807 -43.7779 -43.7719
   -43.7647 -43.7640 -43.7638 -43.7632 -43.7626 -29.7525 -29.7059 -29.6727
   -29.6208 -29.6082 -29.5911 -29.5617 -29.5502 -29.5444 -29.5065 -29.4948
   -29.4907 -29.4577 -29.4438 -29.4184 -27.1308 -27.1216 -27.1208 -27.1030
   -27.0947 -27.0913 -23.3489 -23.2851 -23.2623 -23.1880 -23.1855 -23.1846
   -23.1706 -23.1643 -23.1218  15.2748  15.9608  17.4193  17.4834  17.5560
    17.7287  17.7899  17.8541  17.9616  18.0326  18.1761  18.2413  18.3356
    18.3947  18.4984  18.6372  19.2283  19.2980  19.4882  19.5427  19.7544
    20.0405  20.1139  20.1797  20.2215  20.2676  20.3327  20.3478  20.4945
    20.5407  20.5823  20.6645  20.6840  21.3358  21.4125  21.4479  21.5534
    21.6177  21.7056  21.8761  22.0175  22.1020  22.3411  22.4330  22.6088
    22.7598  22.9216  23.0240  23.2183  23.2879  23.3670  23.3999  23.5467
    25.3230  25.7500  26.1986  27.2379  28.1007  28.3337  29.9420  30.1462
    30.6149  31.2154  31.4527  32.0021  32.9388  33.2914  33.6387  34.3837
    34.4836  35.6819  35.8186  36.5322  36.9741

          k = 0.1877 0.1585-0.1480 ( 19996 PWs)   bands (ev):

   -75.5410 -75.4772 -75.4281 -75.3986 -75.3820 -61.4110 -61.3819 -55.4218
   -55.3241 -55.3179 -43.9539 -43.9420 -43.9374 -43.9350 -43.9253 -43.9234
   -43.9226 -43.8928 -43.8853 -43.8751 -43.8621 -43.8502 -43.8495 -43.8482
   -43.8361 -43.8258 -43.8210 -43.8151 -43.8098 -43.8056 -43.8042 -43.8035
   -43.8030 -43.7980 -43.7918 -43.7904 -43.7843 -43.7807 -43.7779 -43.7719
   -43.7647 -43.7640 -43.7638 -43.7632 -43.7626 -29.7517 -29.7048 -29.6713
   -29.6318 -29.6061 -29.5872 -29.5629 -29.5474 -29.5451 -29.5063 -29.4964
   -29.4848 -29.4610 -29.4428 -29.4198 -27.1308 -27.1216 -27.1207 -27.1030
   -27.0947 -27.0913 -23.3491 -23.2851 -23.2623 -23.1870 -23.1861 -23.1846
   -23.1704 -23.1640 -23.1224  15.2991  15.9904  17.2641  17.4684  17.5021
    17.6423  17.7622  17.8656  17.9241  18.0928  18.1357  18.2924  18.3752
    18.4633  18.6470  18.6910  19.0613  19.3552  19.5379  19.7122  19.8280
    19.8663  20.1212  20.1643  20.1916  20.2463  20.3563  20.3809  20.5523
    20.5700  20.6327  20.7109  20.7449  21.2469  21.2891  21.3819  21.5535
    21.6622  21.7072  21.8029  21.8951  22.0570  22.2247  22.3731  22.5323
    22.7162  23.0366  23.1823  23.2200  23.3010  23.3322  23.4576  24.0157
    25.2715  25.5968  25.7257  27.2692  28.1701  29.0389  29.5778  30.3898
    30.4307  30.9864  31.2122  31.9391  32.8929  33.3263  33.7655  34.4346
    35.2384  35.8110  36.0323  36.3672  36.7851

          k = 0.1875 0.3061 0.0000 ( 19991 PWs)   bands (ev):

   -75.5406 -75.4776 -75.4281 -75.3971 -75.3835 -61.4110 -61.3819 -55.4218
   -55.3241 -55.3179 -43.9539 -43.9420 -43.9374 -43.9350 -43.9253 -43.9234
   -43.9226 -43.8929 -43.8853 -43.8751 -43.8621 -43.8502 -43.8495 -43.8482
   -43.8361 -43.8258 -43.8210 -43.8151 -43.8098 -43.8056 -43.8042 -43.8035
   -43.8030 -43.7980 -43.7918 -43.7904 -43.7843 -43.7807 -43.7779 -43.7719
   -43.7646 -43.7640 -43.7638 -43.7632 -43.7626 -29.7378 -29.7113 -29.6711
   -29.6242 -29.6002 -29.5847 -29.5734 -29.5577 -29.5382 -29.5087 -29.5031
   -29.4878 -29.4579 -29.4378 -29.4239 -27.1312 -27.1215 -27.1207 -27.1034
   -27.0947 -27.0911 -23.3489 -23.2848 -23.2633 -23.1875 -23.1860 -23.1843
   -23.1713 -23.1649 -23.1218  15.7392  16.9230  17.0969  17.2864  17.3945
    17.5149  17.5835  17.6893  17.7620  17.8362  17.9261  18.1611  18.4160
    18.5356  18.7540  18.9668  19.0157  19.2078  19.2914  19.4569  19.5895
    19.8301  19.8654  19.9623  20.0797  20.2036  20.2951  20.4288  20.5317
    20.6823  20.7452  21.0295  21.1058  21.3753  21.5412  21.6320  21.7189
    21.8007  21.9951  22.0910  22.1878  22.4347  22.5662  22.6744  22.8531
    23.0110  23.0487  23.1185  23.1658  23.2432  23.2697  23.3740  23.4550
    23.5616  24.8744  25.2403  25.4608  27.6108  28.1816  28.4405  29.6250
    31.5021  32.0090  32.4113  33.9210  34.1415  34.2889  34.6069  34.8816
    35.3191  35.9698  36.4672  36.5784  36.6104

          k = 0.1873 0.3051 0.1480 ( 20000 PWs)   bands (ev):

   -75.5406 -75.4776 -75.4281 -75.3972 -75.3835 -61.4110 -61.3819 -55.4218
   -55.3241 -55.3179 -43.9539 -43.9420 -43.9374 -43.9350 -43.9253 -43.9234
   -43.9226 -43.8929 -43.8853 -43.8751 -43.8621 -43.8502 -43.8495 -43.8482
   -43.8361 -43.8258 -43.8210 -43.8151 -43.8098 -43.8056 -43.8042 -43.8035
   -43.8030 -43.7980 -43.7918 -43.7904 -43.7843 -43.7807 -43.7779 -43.7719
   -43.7646 -43.7640 -43.7638 -43.7632 -43.7626 -29.7393 -29.7120 -29.6717
   -29.6137 -29.6022 -29.5877 -29.5707 -29.5562 -29.5448 -29.5085 -29.5047
   -29.4901 -29.4555 -29.4390 -29.4216 -27.1312 -27.1215 -27.1207 -27.1034
   -27.0947 -27.0912 -23.3488 -23.2848 -23.2633 -23.1874 -23.1854 -23.1845
   -23.1716 -23.1655 -23.1215  15.8774  16.5722  17.3173  17.3917  17.4706
    17.5257  17.6869  17.7260  17.8131  17.8754  17.9479  17.9857  18.1000
    18.2690  18.4359  18.5213  19.0577  19.2649  19.4365  19.6215  19.9784
    20.0889  20.1483  20.2159  20.2473  20.3130  20.3743  20.4701  20.5540
    20.6160  20.6561  20.7203  21.2549  21.3618  21.3915  21.5626  21.7328
    21.7787  22.0306  22.1450  22.3600  22.3745  22.4314  22.5083  22.5764
    22.6431  22.7668  22.9311  23.1847  23.2305  23.3465  23.4554  23.4951
    24.0879  24.4203  25.9232  26.3795  26.9546  27.2339  28.1611  30.6121
    31.2182  32.1032  32.8533  33.6344  33.8231  34.0964  34.4657  35.5618
    35.8445  36.3771  36.5160  36.5769  36.6624

          k = 0.1877 0.3070-0.1480 ( 19997 PWs)   bands (ev):

   -75.5406 -75.4776 -75.4281 -75.3971 -75.3835 -61.4110 -61.3819 -55.4218
   -55.3241 -55.3179 -43.9539 -43.9420 -43.9374 -43.9350 -43.9253 -43.9234
   -43.9226 -43.8929 -43.8853 -43.8751 -43.8621 -43.8502 -43.8495 -43.8482
   -43.8361 -43.8258 -43.8210 -43.8151 -43.8098 -43.8056 -43.8042 -43.8035
   -43.8030 -43.7980 -43.7918 -43.7904 -43.7843 -43.7807 -43.7779 -43.7719
   -43.7646 -43.7640 -43.7638 -43.7632 -43.7626 -29.7382 -29.7114 -29.6718
   -29.6183 -29.6040 -29.5855 -29.5711 -29.5553 -29.5475 -29.5054 -29.4988
   -29.4857 -29.4657 -29.4376 -29.4215 -27.1312 -27.1215 -27.1207 -27.1034
   -27.0947 -27.0912 -23.3490 -23.2848 -23.2633 -23.1867 -23.1858 -23.1845
   -23.1715 -23.1652 -23.1221  15.9985  16.4653  17.1722  17.3639  17.5220
    17.5529  17.6404  17.7054  17.7550  17.8096  17.8717  18.0617  18.1562
    18.3825  18.4113  18.6776  19.0750  19.1506  19.6034  19.7882  19.9052
    20.0056  20.0819  20.1889  20.2868  20.3448  20.3770  20.4802  20.5537
    20.6049  20.7188  20.8240  21.2145  21.3133  21.4223  21.5112  21.6344
    21.7960  21.8650  22.1390  22.1930  22.2689  22.4186  22.5006  22.5645
    22.6824  22.7049  23.1526  23.2362  23.2627  23.3441  23.4724  23.8820
    24.0125  24.5831  25.6298  25.9196  26.8440  27.3230  29.2349  29.7951
    31.3030  31.8143  32.7585  33.4319  34.1387  34.3497  35.3293  35.7622
    35.8760  36.1316  36.3538  36.4691  36.5387

          k = 0.1875 0.4546 0.0000 ( 19991 PWs)   bands (ev):

   -75.5405 -75.4778 -75.4281 -75.3964 -75.3843 -61.4110 -61.3819 -55.4218
   -55.3241 -55.3179 -43.9539 -43.9420 -43.9374 -43.9350 -43.9253 -43.9234
   -43.9226 -43.8929 -43.8854 -43.8751 -43.8621 -43.8502 -43.8495 -43.8482
   -43.8361 -43.8258 -43.8210 -43.8151 -43.8098 -43.8056 -43.8042 -43.8035
   -43.8030 -43.7980 -43.7918 -43.7904 -43.7843 -43.7807 -43.7779 -43.7719
   -43.7646 -43.7640 -43.7638 -43.7632 -43.7626 -29.7275 -29.7160 -29.6728
   -29.6204 -29.5993 -29.5862 -29.5745 -29.5601 -29.5391 -29.5095 -29.5036
   -29.4855 -29.4633 -29.4366 -29.4227 -27.1314 -27.1213 -27.1207 -27.1037
   -27.0945 -27.0911 -23.3490 -23.2848 -23.2636 -23.1876 -23.1856 -23.1843
   -23.1716 -23.1653 -23.1220  16.3531  16.7086  17.1190  17.2133  17.3894
    17.4300  17.5593  17.5769  17.6403  17.8330  17.9427  18.2689  18.5898
    18.6895  18.7500  18.7934  18.8422  18.9190  19.2260  19.3883  19.8648
    19.9054  19.9238  19.9552  20.0168  20.0699  20.1568  20.2525  20.4538
    20.5597  21.0021  21.1234  21.1552  21.2000  21.3700  21.4274  21.8767
    22.0141  22.0930  22.3918  22.5340  22.7758  23.0275  23.0448  23.0607
    23.1113  23.1768  23.2043  23.2323  23.2485  23.2745  23.4985  23.6298
    23.7196  23.7583  23.9084  24.0469  27.3232  28.2871  28.5512  29.8628
    30.2261  32.3379  34.0720  34.5540  34.7170  34.7990  34.9295  35.1904
    35.5365  36.0935  36.1855  36.4158  36.4791

          k = 0.1873 0.4536 0.1480 ( 20001 PWs)   bands (ev):

   -75.5405 -75.4778 -75.4281 -75.3964 -75.3843 -61.4110 -61.3819 -55.4218
   -55.3241 -55.3179 -43.9539 -43.9420 -43.9374 -43.9350 -43.9253 -43.9234
   -43.9226 -43.8929 -43.8854 -43.8751 -43.8621 -43.8502 -43.8495 -43.8482
   -43.8361 -43.8258 -43.8210 -43.8151 -43.8098 -43.8056 -43.8042 -43.8035
   -43.8030 -43.7980 -43.7918 -43.7904 -43.7843 -43.7807 -43.7779 -43.7719
   -43.7646 -43.7640 -43.7638 -43.7632 -43.7626 -29.7298 -29.7160 -29.6726
   -29.6118 -29.6020 -29.5862 -29.5737 -29.5568 -29.5448 -29.5130 -29.5046
   -29.4880 -29.4589 -29.4376 -29.4211 -27.1314 -27.1214 -27.1206 -27.1036
   -27.0945 -27.0911 -23.3489 -23.2848 -23.2635 -23.1873 -23.1854 -23.1845
   -23.1719 -23.1658 -23.1217  16.4210  16.8608  17.0803  17.2692  17.3962
    17.4238  17.6000  17.6453  17.6969  17.7152  17.8609  18.1092  18.1795
    18.2397  18.5097  18.7587  18.7941  19.2057  19.3832  19.7542  19.8297
    19.8848  19.9611  20.0898  20.1423  20.2465  20.2676  20.5832  20.6796
    20.7407  20.9739  21.0533  21.1438  21.3593  21.6191  21.6737  21.7277
    21.9121  21.9559  22.0687  22.1269  22.3727  22.5723  22.6753  22.7752
    22.9020  23.0248  23.0783  23.1310  23.1616  23.2986  23.3560  23.4202
    23.4594  25.1071  25.2511  25.5114  26.3921  26.9426  27.7016  30.1837
    31.9989  32.2189  33.4973  33.8275  34.4356  35.1120  35.3119  35.7291
    35.9802  36.0863  36.2224  36.4751  37.0672

          k = 0.1877 0.4556-0.1480 ( 20001 PWs)   bands (ev):

   -75.5405 -75.4778 -75.4281 -75.3964 -75.3843 -61.4110 -61.3819 -55.4218
   -55.3241 -55.3179 -43.9539 -43.9420 -43.9374 -43.9350 -43.9253 -43.9234
   -43.9226 -43.8929 -43.8854 -43.8751 -43.8621 -43.8502 -43.8495 -43.8482
   -43.8361 -43.8258 -43.8210 -43.8151 -43.8098 -43.8056 -43.8042 -43.8035
   -43.8030 -43.7980 -43.7918 -43.7904 -43.7843 -43.7807 -43.7779 -43.7719
   -43.7646 -43.7640 -43.7638 -43.7632 -43.7626 -29.7300 -29.7160 -29.6725
   -29.6124 -29.6007 -29.5865 -29.5734 -29.5570 -29.5442 -29.5148 -29.5046
   -29.4881 -29.4577 -29.4377 -29.4214 -27.1314 -27.1213 -27.1207 -27.1036
   -27.0945 -27.0911 -23.3489 -23.2848 -23.2635 -23.1869 -23.1856 -23.1847
   -23.1719 -23.1658 -23.1216  16.3899  16.9191  17.0868  17.2545  17.3881
    17.4102  17.6063  17.6555  17.7086  17.7263  17.8703  18.0789  18.1497
    18.2227  18.5728  18.7418  18.7812  19.1578  19.4367  19.7271  19.8122
    19.9094  19.9983  20.0811  20.1149  20.2411  20.2866  20.5663  20.6703
    20.7350  20.9949  21.0804  21.1284  21.2763  21.6366  21.7155  21.7705
    21.9495  21.9815  22.0530  22.1351  22.3907  22.5452  22.6134  22.7332
    22.9109  23.0101  23.0736  23.1601  23.1821  23.2880  23.3642  23.4028
    23.4833  24.9379  25.2583  25.6513  26.5458  26.9506  27.5120  30.2208
    31.9842  32.3212  33.3190  34.0859  34.3759  34.9624  35.0607  35.8951
    35.9715  36.1960  36.3184  36.5820  37.0553

          k = 0.1875-0.2880 0.0000 ( 20000 PWs)   bands (ev):

   -75.5407 -75.4775 -75.4281 -75.3973 -75.3833 -61.4110 -61.3819 -55.4218
   -55.3241 -55.3179 -43.9539 -43.9420 -43.9374 -43.9350 -43.9253 -43.9234
   -43.9226 -43.8929 -43.8853 -43.8751 -43.8621 -43.8502 -43.8495 -43.8482
   -43.8361 -43.8258 -43.8210 -43.8151 -43.8098 -43.8056 -43.8042 -43.8035
   -43.8030 -43.7980 -43.7918 -43.7904 -43.7843 -43.7807 -43.7779 -43.7719
   -43.7646 -43.7640 -43.7638 -43.7632 -43.7626 -29.7385 -29.7092 -29.6742
   -29.6251 -29.6021 -29.5826 -29.5704 -29.5568 -29.5405 -29.5083 -29.5041
   -29.4883 -29.4571 -29.4392 -29.4216 -27.1314 -27.1214 -27.1206 -27.1035
   -27.0945 -27.0911 -23.3489 -23.2852 -23.2628 -23.1885 -23.1854 -23.1846
   -23.1709 -23.1646 -23.1218  15.6443  16.8776  17.1218  17.2987  17.4065
    17.5296  17.6024  17.7165  17.7974  17.8543  17.9465  18.0981  18.4126
    18.5247  18.8186  18.9817  19.0223  19.2006  19.2877  19.4737  19.6026
    19.8310  19.8521  19.9791  20.0952  20.2029  20.2855  20.4124  20.5113
    20.7218  20.8518  21.0105  21.0931  21.3990  21.5388  21.6231  21.6471
    21.8189  21.8487  22.0162  22.1096  22.3255  22.5155  22.6457  22.8715
    22.9819  23.0191  23.0961  23.1496  23.2324  23.2666  23.3861  23.5384
    23.6506  25.0590  25.4579  25.6977  27.6801  28.1376  28.4997  29.6247
    31.6502  31.8888  32.2226  33.8026  33.9763  34.1824  34.3111  34.6364
    35.3379  35.9419  36.5364  36.6388  36.7877

          k = 0.1873-0.2890 0.1480 ( 19999 PWs)   bands (ev):

   -75.5407 -75.4775 -75.4281 -75.3973 -75.3833 -61.4110 -61.3819 -55.4218
   -55.3241 -55.3179 -43.9539 -43.9420 -43.9374 -43.9350 -43.9253 -43.9234
   -43.9226 -43.8929 -43.8853 -43.8751 -43.8621 -43.8502 -43.8495 -43.8482
   -43.8361 -43.8258 -43.8210 -43.8151 -43.8098 -43.8056 -43.8042 -43.8035
   -43.8030 -43.7980 -43.7918 -43.7904 -43.7843 -43.7807 -43.7779 -43.7719
   -43.7646 -43.7640 -43.7638 -43.7632 -43.7626 -29.7388 -29.7092 -29.6748
   -29.6201 -29.6057 -29.5834 -29.5683 -29.5548 -29.5490 -29.5053 -29.4984
   -29.4854 -29.4670 -29.4385 -29.4193 -27.1314 -27.1214 -27.1205 -27.1035
   -27.0945 -27.0911 -23.3490 -23.2852 -23.2628 -23.1878 -23.1852 -23.1845
   -23.1711 -23.1649 -23.1221  15.8996  16.4119  17.1970  17.3653  17.5200
    17.5839  17.6610  17.7270  17.7800  17.8464  17.8998  18.0233  18.1292
    18.4185  18.4485  18.6685  19.0622  19.1991  19.6267  19.7689  19.9366
    20.0249  20.1108  20.2290  20.2864  20.3226  20.3702  20.4883  20.5177
    20.6163  20.7013  20.7841  21.1937  21.2628  21.3463  21.5194  21.6180
    21.7380  21.8496  22.1476  22.1907  22.3264  22.3972  22.4743  22.4952
    22.6279  22.6540  23.1582  23.2213  23.2655  23.3790  23.4451  24.0602
    24.1524  24.5009  25.6067  26.0798  27.1028  27.4109  29.4702  29.7896
    31.2107  31.5714  32.7754  33.1573  33.8966  34.1964  35.0289  35.8018
    35.9516  36.0897  36.2807  36.4233  36.6011

          k = 0.1877-0.2871-0.1480 ( 19995 PWs)   bands (ev):

   -75.5407 -75.4775 -75.4281 -75.3973 -75.3833 -61.4110 -61.3819 -55.4218
   -55.3241 -55.3179 -43.9539 -43.9420 -43.9374 -43.9350 -43.9253 -43.9234
   -43.9226 -43.8929 -43.8853 -43.8751 -43.8621 -43.8502 -43.8495 -43.8482
   -43.8361 -43.8258 -43.8210 -43.8151 -43.8098 -43.8056 -43.8042 -43.8035
   -43.8030 -43.7980 -43.7918 -43.7904 -43.7843 -43.7807 -43.7779 -43.7719
   -43.7646 -43.7640 -43.7638 -43.7632 -43.7626 -29.7400 -29.7098 -29.6750
   -29.6148 -29.6034 -29.5864 -29.5675 -29.5561 -29.5465 -29.5079 -29.5043
   -29.4905 -29.4566 -29.4397 -29.4194 -27.1314 -27.1214 -27.1206 -27.1035
   -27.0946 -27.0911 -23.3488 -23.2852 -23.2628 -23.1872 -23.1858 -23.1850
   -23.1711 -23.1651 -23.1215  15.7995  16.4817  17.3470  17.4188  17.4975
    17.5527  17.6761  17.7411  17.8194  17.8887  17.9860  18.0098  18.1238
    18.2994  18.3822  18.4995  19.1200  19.2918  19.4198  19.6130  19.9932
    20.1100  20.1452  20.2246  20.2567  20.3292  20.3967  20.4873  20.5455
    20.6063  20.6222  20.7138  21.2213  21.2851  21.3362  21.5608  21.7061
    21.7920  21.9895  22.1089  22.2710  22.3576  22.4477  22.4870  22.5459
    22.6399  22.7326  23.0252  23.1779  23.1977  23.3450  23.4321  23.6195
    24.0408  24.6215  26.0749  26.2798  27.1514  27.3428  28.4036  30.6206
    31.1017  32.0152  32.6018  33.5521  33.7496  33.9676  34.4002  35.2693
    35.7213  36.2702  36.4317  36.5293  36.6762

          k = 0.1875-0.1395 0.0000 ( 19994 PWs)   bands (ev):

   -75.5411 -75.4771 -75.4281 -75.3988 -75.3819 -61.4110 -61.3819 -55.4218
   -55.3241 -55.3178 -43.9539 -43.9420 -43.9374 -43.9350 -43.9253 -43.9234
   -43.9226 -43.8928 -43.8853 -43.8751 -43.8621 -43.8502 -43.8495 -43.8482
   -43.8361 -43.8258 -43.8210 -43.8151 -43.8098 -43.8056 -43.8042 -43.8035
   -43.8030 -43.7980 -43.7918 -43.7904 -43.7843 -43.7807 -43.7779 -43.7719
   -43.7647 -43.7640 -43.7638 -43.7632 -43.7626 -29.7527 -29.7037 -29.6751
   -29.6259 -29.6070 -29.5894 -29.5635 -29.5461 -29.5422 -29.5069 -29.4991
   -29.4923 -29.4533 -29.4441 -29.4185 -27.1310 -27.1215 -27.1206 -27.1032
   -27.0946 -27.0912 -23.3487 -23.2854 -23.2618 -23.1891 -23.1857 -23.1848
   -23.1699 -23.1637 -23.1215  14.9939  16.5002  17.0589  17.3387  17.5605
    17.6775  17.7123  17.8973  18.1016  18.1793  18.2490  18.3274  18.3485
    18.6766  18.7298  18.8829  18.9338  19.0490  19.4825  19.5801  19.7178
    19.8695  19.9960  20.0236  20.0999  20.1363  20.1835  20.2574  20.3304
    20.6391  20.7170  20.9779  21.0244  21.1046  21.1468  21.4965  21.6315
    21.6726  21.7686  21.8044  21.8244  21.9930  22.1500  22.6822  22.7574
    22.8022  22.9063  23.0612  23.1333  23.2021  23.2464  23.3955  23.5064
    25.6469  26.5418  27.1446  27.6336  28.0094  28.0713  28.9802  29.8585
    30.2540  30.8516  31.1868  31.8006  32.4062  33.4464  34.2403  34.8552
    35.0749  35.9251  36.0567  36.1213  37.0973

          k = 0.1873-0.1405 0.1480 ( 19995 PWs)   bands (ev):

   -75.5411 -75.4771 -75.4281 -75.3988 -75.3819 -61.4110 -61.3819 -55.4218
   -55.3241 -55.3178 -43.9539 -43.9420 -43.9374 -43.9350 -43.9253 -43.9234
   -43.9226 -43.8928 -43.8853 -43.8751 -43.8621 -43.8502 -43.8495 -43.8482
   -43.8361 -43.8258 -43.8210 -43.8151 -43.8098 -43.8056 -43.8042 -43.8035
   -43.8030 -43.7980 -43.7918 -43.7904 -43.7843 -43.7807 -43.7779 -43.7719
   -43.7647 -43.7640 -43.7638 -43.7632 -43.7626 -29.7522 -29.7028 -29.6742
   -29.6326 -29.6077 -29.5859 -29.5601 -29.5491 -29.5437 -29.5063 -29.4971
   -29.4859 -29.4609 -29.4431 -29.4180 -27.1310 -27.1215 -27.1206 -27.1032
   -27.0946 -27.0912 -23.3491 -23.2854 -23.2618 -23.1884 -23.1854 -23.1845
   -23.1701 -23.1636 -23.1224  15.2376  15.9458  17.2611  17.4557  17.5157
    17.6588  17.7461  17.8538  17.9565  18.1568  18.2119  18.3746  18.4268
    18.4671  18.6701  18.7153  19.0755  19.3087  19.5465  19.7101  19.7572
    19.8278  20.0661  20.1204  20.1710  20.2446  20.3428  20.3794  20.5003
    20.5713  20.6523  20.6766  20.7174  21.2435  21.3568  21.4002  21.5141
    21.6104  21.6434  21.7752  21.8921  22.0549  22.2474  22.3420  22.5493
    22.7570  23.0172  23.1821  23.2536  23.3122  23.3223  23.4578  23.9618
    25.3374  25.8303  25.9210  27.4663  28.2882  29.2756  29.5223  30.3099
    30.3680  30.8614  31.0651  31.6897  32.8108  33.2993  33.7052  34.2243
    35.1462  35.6395  35.9374  36.3383  36.7109

          k = 0.1877-0.1385-0.1480 ( 19999 PWs)   bands (ev):

   -75.5411 -75.4771 -75.4281 -75.3988 -75.3819 -61.4110 -61.3819 -55.4218
   -55.3241 -55.3178 -43.9539 -43.9420 -43.9374 -43.9350 -43.9253 -43.9234
   -43.9226 -43.8928 -43.8853 -43.8751 -43.8621 -43.8502 -43.8495 -43.8482
   -43.8361 -43.8258 -43.8210 -43.8151 -43.8098 -43.8056 -43.8042 -43.8035
   -43.8030 -43.7980 -43.7918 -43.7904 -43.7843 -43.7807 -43.7779 -43.7719
   -43.7647 -43.7640 -43.7638 -43.7632 -43.7626 -29.7529 -29.7038 -29.6754
   -29.6220 -29.6099 -29.5898 -29.5607 -29.5499 -29.5430 -29.5067 -29.4954
   -29.4906 -29.4593 -29.4436 -29.4166 -27.1310 -27.1215 -27.1207 -27.1032
   -27.0946 -27.0912 -23.3489 -23.2854 -23.2618 -23.1874 -23.1862 -23.1852
   -23.1701 -23.1638 -23.1218  15.2232  15.9061  17.4033  17.4762  17.5646
    17.7322  17.8181  17.8730  17.9831  18.0480  18.2248  18.2786  18.3275
    18.4587  18.5726  18.6697  19.2149  19.2942  19.5204  19.5458  19.7451
    19.9652  20.0641  20.1291  20.1959  20.2331  20.2905  20.3180  20.4837
    20.5182  20.6078  20.6491  20.7063  21.2988  21.4029  21.4654  21.5306
    21.6346  21.6857  21.8452  21.9772  22.0757  22.2899  22.4725  22.6310
    22.7896  22.9696  23.0203  23.2187  23.2854  23.3642  23.4045  23.4962
    25.5892  25.7363  26.4281  27.4155  28.2606  28.4329  29.8136  30.2881
    30.4362  31.1131  31.2817  31.9963  32.7176  33.2267  33.4897  34.2655
    34.3043  35.5467  35.9945  36.5481  37.0317

          k = 0.1875 0.0090 0.0000 ( 20011 PWs)   bands (ev):

   -75.5413 -75.4770 -75.4281 -75.3994 -75.3813 -61.4110 -61.3819 -55.4218
   -55.3241 -55.3178 -43.9539 -43.9420 -43.9374 -43.9350 -43.9253 -43.9234
   -43.9226 -43.8928 -43.8853 -43.8751 -43.8621 -43.8502 -43.8495 -43.8482
   -43.8361 -43.8259 -43.8210 -43.8151 -43.8098 -43.8056 -43.8042 -43.8035
   -43.8031 -43.7980 -43.7918 -43.7904 -43.7843 -43.7807 -43.7779 -43.7719
   -43.7647 -43.7640 -43.7638 -43.7632 -43.7626 -29.7584 -29.7034 -29.6736
   -29.6244 -29.6092 -29.5940 -29.5629 -29.5430 -29.5383 -29.5074 -29.4965
   -29.4925 -29.4541 -29.4458 -29.4170 -27.1307 -27.1213 -27.1210 -27.1029
   -27.0945 -27.0913 -23.3487 -23.2854 -23.2615 -23.1890 -23.1861 -23.1848
   -23.1697 -23.1633 -23.1214  14.7723  16.3720  16.9430  17.2383  17.5443
    17.9210  18.0513  18.0845  18.1161  18.1443  18.1833  18.6247  18.6649
    18.6941  18.8221  18.8574  18.8803  19.2082  19.3618  19.5773  19.7312
    19.7719  19.8514  19.8820  19.9482  20.0808  20.1415  20.1545  20.1899
    20.2953  20.5716  20.6490  21.2296  21.2965  21.3771  21.3903  21.4523
    21.5000  21.6257  21.9316  21.9999  22.0323  22.1712  22.4768  22.5635
    22.8538  22.9663  23.0596  23.1498  23.1784  23.2782  23.3172  23.6254
    27.3864  27.7432  27.9823  28.1608  28.3380  28.4306  28.6672  29.4734
    29.6872  30.1033  30.2838  30.7402  31.1433  32.8645  34.6319  35.0458
    36.0396  36.2731  36.3380  36.4520  36.7639

          k = 0.1873 0.0080 0.1480 ( 19989 PWs)   bands (ev):

   -75.5413 -75.4770 -75.4281 -75.3994 -75.3813 -61.4110 -61.3819 -55.4218
   -55.3241 -55.3178 -43.9539 -43.9420 -43.9374 -43.9350 -43.9253 -43.9234
   -43.9226 -43.8928 -43.8853 -43.8751 -43.8621 -43.8502 -43.8495 -43.8482
   -43.8361 -43.8258 -43.8210 -43.8151 -43.8098 -43.8056 -43.8042 -43.8035
   -43.8031 -43.7980 -43.7918 -43.7904 -43.7843 -43.7807 -43.7779 -43.7719
   -43.7647 -43.7640 -43.7638 -43.7632 -43.7626 -29.7581 -29.7022 -29.6726
   -29.6330 -29.6090 -29.5891 -29.5585 -29.5478 -29.5383 -29.5069 -29.4970
   -29.4879 -29.4572 -29.4455 -29.4172 -27.1307 -27.1213 -27.1209 -27.1029
   -27.0945 -27.0914 -23.3490 -23.2854 -23.2615 -23.1884 -23.1855 -23.1846
   -23.1699 -23.1633 -23.1222  15.0152  15.7383  17.2918  17.4113  17.6070
    17.7218  17.8071  17.8405  18.2144  18.2848  18.3153  18.4330  18.7273
    18.7917  18.8384  19.0171  19.0773  19.2115  19.3185  19.4050  19.6025
    19.6291  19.8100  19.8895  19.9339  20.1035  20.2053  20.2456  20.4455
    20.4823  20.7113  20.8477  20.9506  21.0413  21.1193  21.4564  21.4881
    21.5834  21.6500  21.7734  21.9658  22.0435  22.1213  22.6252  22.7718
    22.9153  23.0115  23.0980  23.2013  23.2709  23.3547  23.4142  23.5305
    25.4991  27.7663  27.8335  28.0325  28.2465  28.5180  29.0849  29.2384
    30.2223  30.9186  31.2297  31.6199  32.0524  32.5420  33.7613  34.1357
    34.3590  34.6516  35.4408  36.5588  36.7259

          k = 0.1877 0.0100-0.1480 ( 19992 PWs)   bands (ev):

   -75.5413 -75.4770 -75.4281 -75.3994 -75.3813 -61.4110 -61.3819 -55.4218
   -55.3241 -55.3178 -43.9539 -43.9420 -43.9374 -43.9350 -43.9253 -43.9234
   -43.9226 -43.8928 -43.8853 -43.8751 -43.8621 -43.8502 -43.8495 -43.8482
   -43.8361 -43.8258 -43.8210 -43.8151 -43.8098 -43.8056 -43.8042 -43.8035
   -43.8031 -43.7980 -43.7918 -43.7904 -43.7843 -43.7807 -43.7779 -43.7719
   -43.7647 -43.7640 -43.7638 -43.7632 -43.7626 -29.7580 -29.7021 -29.6724
   -29.6337 -29.6090 -29.5889 -29.5596 -29.5463 -29.5384 -29.5069 -29.4971
   -29.4877 -29.4581 -29.4447 -29.4174 -27.1307 -27.1213 -27.1209 -27.1029
   -27.0946 -27.0914 -23.3490 -23.2854 -23.2615 -23.1873 -23.1863 -23.1849
   -23.1698 -23.1633 -23.1223  15.0177  15.7386  17.2896  17.4027  17.6081
    17.7141  17.7976  17.8323  18.1942  18.2893  18.3566  18.4580  18.7198
    18.8057  18.8446  18.9783  19.0536  19.1979  19.3633  19.4138  19.5980
    19.6319  19.7856  19.9025  19.9629  20.0972  20.1908  20.2614  20.4484
    20.4931  20.6959  20.8353  20.9632  21.0443  21.1455  21.4354  21.4769
    21.5582  21.6432  21.7628  21.9617  22.0623  22.1496  22.6092  22.7034
    22.9384  22.9952  23.1197  23.2187  23.2650  23.3410  23.4354  23.5742
    25.4784  27.5859  27.8160  28.1437  28.2576  28.6617  29.1084  29.2091
    30.2612  30.8258  31.1678  31.5505  32.0044  32.6681  33.9156  34.1962
    34.3867  34.6457  35.2352  36.4746  36.6813

          k = 0.3125 0.2130 0.0000 ( 19987 PWs)   bands (ev):

   -75.5407 -75.4773 -75.4283 -75.3973 -75.3833 -61.4110 -61.3819 -55.4218
   -55.3240 -55.3178 -43.9539 -43.9420 -43.9374 -43.9350 -43.9253 -43.9234
   -43.9226 -43.8929 -43.8853 -43.8751 -43.8621 -43.8502 -43.8495 -43.8482
   -43.8361 -43.8258 -43.8210 -43.8151 -43.8098 -43.8056 -43.8042 -43.8035
   -43.8030 -43.7980 -43.7918 -43.7904 -43.7843 -43.7807 -43.7779 -43.7719
   -43.7646 -43.7640 -43.7638 -43.7632 -43.7626 -29.7499 -29.7169 -29.6664
   -29.6266 -29.6118 -29.5903 -29.5730 -29.5462 -29.5367 -29.5083 -29.5010
   -29.4868 -29.4527 -29.4409 -29.4188 -27.1307 -27.1223 -27.1208 -27.1029
   -27.0952 -27.0910 -23.3482 -23.2862 -23.2623 -23.1877 -23.1866 -23.1855
   -23.1707 -23.1643 -23.1219  15.8788  16.7546  17.2254  17.4538  17.5808
    17.7498  17.8140  17.8177  17.9462  18.1935  18.3302  18.4916  18.5913
    18.7726  18.9086  19.0809  19.2177  19.2720  19.4181  19.4532  19.7673
    19.9935  20.1063  20.1732  20.2550  20.3243  20.3873  20.4470  20.4772
    20.5253  20.5515  20.6044  20.6797  20.7116  20.7746  21.3115  21.4333
    21.4638  21.5312  21.7575  21.8528  22.1123  22.2268  22.4369  22.6084
    22.7483  22.9983  23.1008  23.1268  23.3013  23.3255  23.3800  23.7648
    24.5469  24.8972  26.4030  26.6135  27.0288  27.2584  29.0790  29.6511
    29.8595  30.3076  31.5339  32.4970  33.4214  33.7025  34.0847  34.5673
    34.6790  35.7502  36.6406  36.8014  37.9043

          k = 0.3123 0.2121 0.1480 ( 19984 PWs)   bands (ev):

   -75.5407 -75.4773 -75.4283 -75.3973 -75.3833 -61.4110 -61.3819 -55.4218
   -55.3241 -55.3178 -43.9539 -43.9420 -43.9374 -43.9350 -43.9253 -43.9234
   -43.9226 -43.8929 -43.8853 -43.8751 -43.8621 -43.8502 -43.8495 -43.8482
   -43.8361 -43.8258 -43.8210 -43.8151 -43.8098 -43.8056 -43.8042 -43.8035
   -43.8030 -43.7980 -43.7918 -43.7904 -43.7843 -43.7807 -43.7779 -43.7719
   -43.7646 -43.7640 -43.7638 -43.7632 -43.7626 -29.7505 -29.7175 -29.6672
   -29.6199 -29.6146 -29.5903 -29.5687 -29.5485 -29.5443 -29.5061 -29.4967
   -29.4878 -29.4560 -29.4415 -29.4167 -27.1307 -27.1224 -27.1208 -27.1029
   -27.0952 -27.0910 -23.3481 -23.2862 -23.2623 -23.1882 -23.1862 -23.1853
   -23.1708 -23.1645 -23.1217  16.0201  16.5462  17.1398  17.2916  17.7313
    17.7893  17.8738  18.0258  18.0628  18.2059  18.3002  18.5618  18.6355
    18.7004  18.7873  18.8582  19.3100  19.3464  19.5196  19.5963  19.6591
    19.6921  19.8874  19.9353  20.1038  20.1417  20.1810  20.2635  20.3351
    20.4206  20.4934  20.5349  21.1664  21.3245  21.4113  21.4565  21.5531
    21.6095  21.6704  21.7941  21.9378  22.0354  22.3894  22.4682  22.5266
    22.5541  22.8101  22.8799  23.0095  23.1406  23.1543  23.2513  24.7484
    25.0732  25.1531  25.4803  25.5780  26.0231  28.8669  29.0268  29.5363
    30.2092  30.6098  30.9362  32.4111  33.2505  33.5398  34.5075  34.9147
    35.2029  36.1262  36.3680  36.6382  37.4643

          k = 0.3127 0.2140-0.1480 ( 19966 PWs)   bands (ev):

   -75.5407 -75.4773 -75.4283 -75.3973 -75.3833 -61.4110 -61.3819 -55.4218
   -55.3240 -55.3178 -43.9539 -43.9420 -43.9374 -43.9350 -43.9253 -43.9234
   -43.9226 -43.8929 -43.8853 -43.8751 -43.8621 -43.8502 -43.8495 -43.8482
   -43.8361 -43.8258 -43.8210 -43.8151 -43.8098 -43.8056 -43.8042 -43.8035
   -43.8030 -43.7980 -43.7918 -43.7904 -43.7843 -43.7807 -43.7779 -43.7719
   -43.7646 -43.7640 -43.7638 -43.7632 -43.7626 -29.7499 -29.7168 -29.6666
   -29.6280 -29.6122 -29.5875 -29.5701 -29.5490 -29.5428 -29.5057 -29.4946
   -29.4844 -29.4610 -29.4400 -29.4174 -27.1307 -27.1223 -27.1208 -27.1029
   -27.0952 -27.0910 -23.3483 -23.2862 -23.2623 -23.1874 -23.1870 -23.1850
   -23.1707 -23.1643 -23.1222  16.1053  16.5885  16.9590  17.2440  17.7907
    17.8138  17.8833  17.9681  18.0235  18.1015  18.3061  18.4288  18.5566
    18.8280  18.9137  18.9514  19.0935  19.2558  19.6873  19.7669  19.8200
    19.9349  19.9731  20.0038  20.0562  20.1257  20.1465  20.1682  20.2415
    20.3816  20.6938  20.7527  21.0802  21.2068  21.2413  21.3461  21.4274
    21.4484  21.5580  21.5985  21.7517  22.1434  22.4157  22.6748  22.7931
    22.8227  22.9220  22.9978  23.0823  23.1651  23.1902  23.2817  23.8111
    24.5456  24.9352  25.7658  26.2053  26.6818  28.0614  28.5164  29.7157
    30.6868  31.1981  31.6643  32.0694  32.4335  33.6630  34.0815  34.2129
    35.5377  35.9478  36.8350  37.3706  37.4603

          k = 0.3125 0.3616 0.0000 ( 19986 PWs)   bands (ev):

   -75.5405 -75.4776 -75.4283 -75.3962 -75.3844 -61.4110 -61.3819 -55.4218
   -55.3241 -55.3179 -43.9539 -43.9420 -43.9374 -43.9350 -43.9253 -43.9234
   -43.9226 -43.8929 -43.8853 -43.8751 -43.8621 -43.8502 -43.8495 -43.8482
   -43.8361 -43.8258 -43.8210 -43.8151 -43.8098 -43.8056 -43.8042 -43.8035
   -43.8030 -43.7980 -43.7918 -43.7904 -43.7843 -43.7807 -43.7779 -43.7719
   -43.7646 -43.7640 -43.7638 -43.7632 -43.7626 -29.7394 -29.7214 -29.6662
   -29.6250 -29.6078 -29.5879 -29.5785 -29.5531 -29.5319 -29.5123 -29.5031
   -29.4840 -29.4575 -29.4386 -29.4185 -27.1312 -27.1221 -27.1207 -27.1033
   -27.0950 -27.0910 -23.3483 -23.2861 -23.2628 -23.1871 -23.1864 -23.1857
   -23.1712 -23.1648 -23.1221  16.4121  16.9553  17.1592  17.4361  17.5518
    17.5943  17.6871  17.7594  17.8324  17.9241  18.1383  18.2765  18.8218
    18.8959  19.0614  19.2218  19.2732  19.4680  19.5408  19.5924  19.7571
    19.8453  19.8962  20.0126  20.0334  20.1165  20.2661  20.2962  20.3474
    20.4361  20.4824  20.7058  20.7994  20.8413  21.1200  21.2453  21.2967
    21.6005  21.6952  22.1768  22.3104  22.3684  22.5576  22.7243  22.7747
    22.8808  22.9141  23.0845  23.2039  23.2420  23.3761  23.3867  23.5775
    23.7341  24.2014  25.0820  25.5293  26.2350  26.6594  29.0480  30.3525
    31.2712  31.4892  32.0207  32.8191  33.3711  33.7587  33.8331  34.6588
    35.7044  36.4164  36.7026  37.0329  37.6974

          k = 0.3123 0.3606 0.1480 ( 19987 PWs)   bands (ev):

   -75.5405 -75.4776 -75.4283 -75.3962 -75.3844 -61.4110 -61.3819 -55.4218
   -55.3241 -55.3178 -43.9539 -43.9420 -43.9374 -43.9350 -43.9253 -43.9234
   -43.9226 -43.8929 -43.8853 -43.8751 -43.8621 -43.8502 -43.8495 -43.8482
   -43.8361 -43.8258 -43.8210 -43.8151 -43.8098 -43.8056 -43.8042 -43.8035
   -43.8030 -43.7980 -43.7918 -43.7904 -43.7843 -43.7807 -43.7779 -43.7719
   -43.7646 -43.7640 -43.7638 -43.7632 -43.7626 -29.7406 -29.7224 -29.6661
   -29.6177 -29.6102 -29.5887 -29.5745 -29.5511 -29.5416 -29.5108 -29.5037
   -29.4854 -29.4557 -29.4397 -29.4169 -27.1312 -27.1221 -27.1207 -27.1033
   -27.0950 -27.0909 -23.3481 -23.2861 -23.2628 -23.1878 -23.1862 -23.1853
   -23.1714 -23.1651 -23.1216  16.3875  17.0087  17.1824  17.3959  17.5214
    17.6821  17.7322  17.8188  18.0226  18.0786  18.1323  18.3154  18.4338
    18.4781  18.9564  18.9834  19.1304  19.4400  19.6672  19.7023  19.7776
    19.8263  19.9153  19.9712  20.0765  20.1767  20.2031  20.3631  20.4039
    20.5718  20.7661  20.8081  20.9674  20.9916  21.0320  21.0458  21.7114
    21.8281  21.8796  21.9625  22.0905  22.1456  22.2304  22.4132  22.6531
    22.7676  22.9962  23.1669  23.2064  23.2685  23.3985  23.4838  23.6000
    23.9257  24.1421  25.3290  25.5919  26.2722  26.9643  28.6927  29.3342
    30.3639  31.3724  32.1669  34.0067  34.0881  34.3590  34.9703  35.4503
    35.7808  35.9658  36.5434  36.6389  36.9344

          k = 0.3127 0.3625-0.1480 ( 19977 PWs)   bands (ev):

   -75.5405 -75.4776 -75.4283 -75.3962 -75.3844 -61.4110 -61.3819 -55.4218
   -55.3241 -55.3178 -43.9539 -43.9420 -43.9374 -43.9350 -43.9253 -43.9234
   -43.9226 -43.8929 -43.8853 -43.8751 -43.8621 -43.8502 -43.8495 -43.8482
   -43.8361 -43.8258 -43.8210 -43.8151 -43.8098 -43.8056 -43.8042 -43.8035
   -43.8030 -43.7980 -43.7918 -43.7904 -43.7843 -43.7807 -43.7779 -43.7719
   -43.7646 -43.7640 -43.7638 -43.7632 -43.7626 -29.7402 -29.7220 -29.6665
   -29.6205 -29.6092 -29.5881 -29.5746 -29.5524 -29.5430 -29.5052 -29.5032
   -29.4844 -29.4605 -29.4383 -29.4171 -27.1312 -27.1221 -27.1207 -27.1033
   -27.0950 -27.0909 -23.3482 -23.2861 -23.2628 -23.1874 -23.1864 -23.1853
   -23.1713 -23.1650 -23.1219  16.5597  16.8887  17.0175  17.3253  17.6096
    17.7083  17.7950  17.8743  17.9308  17.9997  18.1300  18.2393  18.5612
    18.6420  18.7207  18.9688  19.0736  19.5202  19.6264  19.6913  19.8732
    19.9619  20.0572  20.0967  20.1312  20.1809  20.2470  20.3091  20.3591
    20.5130  20.7117  20.8735  20.8822  20.9668  21.1513  21.2006  21.2543
    21.5277  21.6845  22.0539  22.1220  22.3341  22.3593  22.5242  22.7378
    22.9830  23.0190  23.1170  23.1668  23.2042  23.2418  23.3512  23.4262
    24.0897  24.6489  24.8547  25.1991  26.9771  27.2397  27.6943  29.6272
    30.8531  31.4002  32.6482  32.8954  33.6302  34.5619  34.9670  35.4389
    36.0410  36.2626  36.7239  36.9911  37.0472

          k = 0.3125 0.5101 0.0000 ( 19987 PWs)   bands (ev):

   -75.5405 -75.4776 -75.4283 -75.3962 -75.3845 -61.4110 -61.3819 -55.4218
   -55.3241 -55.3179 -43.9539 -43.9420 -43.9374 -43.9350 -43.9253 -43.9234
   -43.9226 -43.8929 -43.8853 -43.8751 -43.8621 -43.8502 -43.8495 -43.8482
   -43.8361 -43.8258 -43.8210 -43.8151 -43.8098 -43.8056 -43.8042 -43.8035
   -43.8030 -43.7980 -43.7918 -43.7904 -43.7843 -43.7807 -43.7779 -43.7719
   -43.7646 -43.7640 -43.7638 -43.7632 -43.7626 -29.7372 -29.7217 -29.6681
   -29.6251 -29.6082 -29.5868 -29.5775 -29.5532 -29.5326 -29.5133 -29.5035
   -29.4838 -29.4582 -29.4388 -29.4170 -27.1315 -27.1218 -27.1207 -27.1036
   -27.0948 -27.0909 -23.3483 -23.2863 -23.2626 -23.1879 -23.1862 -23.1854
   -23.1710 -23.1647 -23.1221  16.4734  16.9263  17.1918  17.4412  17.5513
    17.5894  17.6821  17.7446  17.8207  17.9116  18.1081  18.2134  18.8748
    18.9369  19.1075  19.2189  19.2944  19.4975  19.5624  19.6320  19.7177
    19.8249  19.9159  19.9699  19.9984  20.0772  20.2254  20.2431  20.3288
    20.4353  20.5385  20.7535  20.8315  20.8625  21.0761  21.1640  21.2160
    21.7248  21.7619  22.1871  22.3271  22.4259  22.6023  22.6881  22.8157
    22.8546  22.9234  23.0831  23.1218  23.1893  23.2935  23.3401  23.6099
    23.8968  24.2813  24.9092  25.3288  26.2316  26.6454  29.0499  30.4449
    31.3072  31.5867  32.0126  32.8841  33.3798  33.7807  33.9036  34.4775
    35.4705  36.1931  37.0959  37.2749  37.6728

          k = 0.3123 0.5091 0.1480 ( 20001 PWs)   bands (ev):

   -75.5405 -75.4776 -75.4283 -75.3962 -75.3845 -61.4110 -61.3819 -55.4218
   -55.3241 -55.3178 -43.9539 -43.9420 -43.9374 -43.9350 -43.9253 -43.9234
   -43.9226 -43.8929 -43.8853 -43.8751 -43.8621 -43.8502 -43.8495 -43.8482
   -43.8361 -43.8258 -43.8210 -43.8151 -43.8098 -43.8056 -43.8042 -43.8035
   -43.8030 -43.7980 -43.7918 -43.7904 -43.7843 -43.7807 -43.7779 -43.7719
   -43.7646 -43.7640 -43.7638 -43.7632 -43.7626 -29.7382 -29.7223 -29.6683
   -29.6199 -29.6097 -29.5872 -29.5743 -29.5522 -29.5430 -29.5067 -29.5040
   -29.4846 -29.4610 -29.4384 -29.4155 -27.1315 -27.1218 -27.1207 -27.1036
   -27.0948 -27.0909 -23.3482 -23.2863 -23.2626 -23.1880 -23.1862 -23.1853
   -23.1711 -23.1649 -23.1219  16.5633  16.9490  17.0407  17.3510  17.5936
    17.6917  17.7907  17.8651  17.9043  17.9854  18.1091  18.2169  18.5931
    18.6188  18.7153  18.9888  19.0562  19.5209  19.5922  19.7647  19.8674
    19.9667  20.0495  20.1029  20.1253  20.1990  20.2778  20.3420  20.3991
    20.4939  20.7366  20.8043  20.8588  20.8977  21.1118  21.2524  21.2914
    21.5511  21.6094  22.0208  22.2056  22.3359  22.4105  22.4526  22.7447
    22.9270  23.0146  23.1335  23.1952  23.2269  23.2564  23.3768  23.4117
    24.0255  24.5073  25.0444  25.1542  26.7678  27.3682  27.5972  29.5310
    30.8553  31.5613  32.7780  33.0291  33.6173  34.5009  34.7477  35.5040
    35.9489  36.3159  36.9053  37.0416  37.2720

          k = 0.3127 0.5111-0.1480 ( 19988 PWs)   bands (ev):

   -75.5405 -75.4776 -75.4283 -75.3962 -75.3845 -61.4110 -61.3819 -55.4218
   -55.3241 -55.3178 -43.9539 -43.9420 -43.9374 -43.9350 -43.9253 -43.9234
   -43.9226 -43.8929 -43.8853 -43.8751 -43.8621 -43.8502 -43.8495 -43.8482
   -43.8361 -43.8258 -43.8210 -43.8151 -43.8098 -43.8056 -43.8042 -43.8035
   -43.8030 -43.7980 -43.7918 -43.7904 -43.7843 -43.7807 -43.7779 -43.7719
   -43.7646 -43.7640 -43.7638 -43.7632 -43.7626 -29.7385 -29.7226 -29.6679
   -29.6189 -29.6095 -29.5875 -29.5737 -29.5513 -29.5420 -29.5126 -29.5039
   -29.4851 -29.4564 -29.4396 -29.4156 -27.1315 -27.1218 -27.1207 -27.1036
   -27.0948 -27.0909 -23.3482 -23.2863 -23.2626 -23.1877 -23.1864 -23.1856
   -23.1711 -23.1650 -23.1217  16.4292  17.0208  17.2158  17.4150  17.5146
    17.6647  17.7217  17.8102  17.9847  18.0491  18.0939  18.2848  18.4478
    18.4949  18.9710  19.0055  19.0844  19.4161  19.6905  19.7313  19.8046
    19.8605  19.9232  20.0401  20.0728  20.1920  20.2223  20.3816  20.4327
    20.5902  20.7134  20.8051  20.8939  20.9771  21.0045  21.0483  21.7299
    21.7636  21.8744  21.9198  22.0422  22.1660  22.2337  22.4136  22.7416
    22.8522  23.0089  23.1821  23.2001  23.2810  23.3998  23.4535  23.6077
    23.8262  24.0196  25.3162  25.7028  26.4037  26.7327  28.4750  29.3155
    30.4592  31.5894  32.3799  33.7711  34.0119  34.3988  35.0735  35.3670
    35.7800  35.9032  36.6922  36.7402  37.0058

          k = 0.3125-0.2325 0.0000 ( 19978 PWs)   bands (ev):

   -75.5407 -75.4773 -75.4283 -75.3971 -75.3835 -61.4110 -61.3819 -55.4218
   -55.3240 -55.3178 -43.9539 -43.9420 -43.9374 -43.9350 -43.9253 -43.9234
   -43.9226 -43.8929 -43.8853 -43.8751 -43.8621 -43.8502 -43.8495 -43.8482
   -43.8361 -43.8258 -43.8210 -43.8151 -43.8098 -43.8056 -43.8042 -43.8035
   -43.8030 -43.7980 -43.7918 -43.7904 -43.7843 -43.7807 -43.7779 -43.7719
   -43.7646 -43.7640 -43.7638 -43.7632 -43.7626 -29.7467 -29.7166 -29.6701
   -29.6267 -29.6125 -29.5872 -29.5720 -29.5469 -29.5383 -29.5089 -29.5030
   -29.4861 -29.4538 -29.4410 -29.4163 -27.1313 -27.1219 -27.1207 -27.1033
   -27.0949 -27.0910 -23.3482 -23.2867 -23.2618 -23.1889 -23.1865 -23.1851
   -23.1703 -23.1640 -23.1220  15.9494  16.7867  17.1983  17.4523  17.5646
    17.7323  17.7897  17.8303  17.9667  18.1221  18.3760  18.4419  18.6385
    18.7567  18.9008  19.0721  19.2372  19.2704  19.4196  19.4795  19.7561
    19.9708  20.1275  20.1857  20.2048  20.3041  20.3823  20.4453  20.4738
    20.5304  20.5596  20.6204  20.6708  20.7124  20.7733  21.3499  21.4481
    21.4729  21.5178  21.8092  21.9039  22.0992  22.2316  22.4584  22.6313
    22.8194  23.0090  23.1021  23.1382  23.2871  23.3372  23.3848  23.8309
    24.3686  24.6425  26.3002  26.4559  26.9837  27.0797  29.1029  29.7192
    29.9585  30.4411  31.7394  32.5413  33.3866  33.8118  34.0526  34.4615
    34.9664  36.0515  36.6025  36.9751  37.8031

          k = 0.3123-0.2335 0.1480 ( 19976 PWs)   bands (ev):

   -75.5407 -75.4773 -75.4283 -75.3971 -75.3835 -61.4110 -61.3819 -55.4218
   -55.3241 -55.3178 -43.9539 -43.9420 -43.9374 -43.9350 -43.9253 -43.9234
   -43.9226 -43.8929 -43.8853 -43.8751 -43.8621 -43.8502 -43.8495 -43.8482
   -43.8361 -43.8258 -43.8210 -43.8151 -43.8098 -43.8056 -43.8042 -43.8035
   -43.8030 -43.7980 -43.7918 -43.7904 -43.7843 -43.7807 -43.7779 -43.7719
   -43.7646 -43.7640 -43.7638 -43.7632 -43.7626 -29.7468 -29.7165 -29.6704
   -29.6265 -29.6134 -29.5852 -29.5691 -29.5508 -29.5434 -29.5055 -29.4966
   -29.4845 -29.4630 -29.4394 -29.4149 -27.1313 -27.1219 -27.1207 -27.1033
   -27.0949 -27.0909 -23.3482 -23.2867 -23.2618 -23.1888 -23.1865 -23.1849
   -23.1703 -23.1640 -23.1221  16.1781  16.6273  16.9512  17.2412  17.7762
    17.7999  17.8658  17.9384  18.0510  18.1291  18.3211  18.3465  18.4974
    18.8212  18.8939  18.9531  19.1308  19.2377  19.7211  19.7838  19.8431
    19.9083  19.9292  20.0217  20.0631  20.1442  20.1575  20.1840  20.2649
    20.3784  20.6945  20.7353  21.0678  21.2188  21.2510  21.3367  21.4177
    21.4492  21.5331  21.6567  21.8267  22.1517  22.4741  22.6911  22.7161
    22.8543  22.9527  23.0166  23.0675  23.1607  23.2163  23.2528  23.8794
    24.3176  24.8211  25.6315  26.0393  26.7268  28.0684  28.4527  29.6532
    30.7896  31.0763  31.6370  32.1195  32.5590  33.9769  34.3708  34.5136
    35.6174  36.0685  36.5895  37.2305  37.2901

          k = 0.3127-0.2315-0.1480 ( 19984 PWs)   bands (ev):

   -75.5407 -75.4773 -75.4283 -75.3971 -75.3835 -61.4110 -61.3819 -55.4218
   -55.3241 -55.3178 -43.9539 -43.9420 -43.9374 -43.9350 -43.9253 -43.9234
   -43.9226 -43.8929 -43.8853 -43.8751 -43.8621 -43.8502 -43.8495 -43.8482
   -43.8361 -43.8258 -43.8210 -43.8151 -43.8098 -43.8056 -43.8042 -43.8035
   -43.8030 -43.7980 -43.7918 -43.7904 -43.7843 -43.7807 -43.7779 -43.7719
   -43.7646 -43.7640 -43.7638 -43.7632 -43.7626 -29.7475 -29.7171 -29.6708
   -29.6188 -29.6155 -29.5879 -29.5684 -29.5497 -29.5443 -29.5065 -29.4996
   -29.4874 -29.4576 -29.4405 -29.4144 -27.1313 -27.1219 -27.1207 -27.1033
   -27.0949 -27.0909 -23.3481 -23.2867 -23.2618 -23.1879 -23.1868 -23.1859
   -23.1703 -23.1642 -23.1217  16.0770  16.6048  17.1278  17.2890  17.7054
    17.8069  17.8607  17.9633  18.1002  18.1916  18.2966  18.5501  18.6077
    18.6611  18.7207  18.8788  19.3399  19.3559  19.5332  19.5988  19.6771
    19.7012  19.8441  20.0182  20.0956  20.1381  20.1999  20.2680  20.3470
    20.3971  20.4706  20.5556  21.1628  21.3163  21.3992  21.4601  21.6108
    21.6323  21.7334  21.7889  21.9412  22.0352  22.3743  22.4404  22.5394
    22.6044  22.8270  22.9129  23.0020  23.0927  23.1508  23.2500  24.7895
    24.9017  25.0194  25.3560  25.5325  25.9614  28.7018  29.0730  29.5736
    30.2602  30.5087  30.8823  32.6524  33.4163  33.8361  34.6692  35.0441
    35.4656  35.9850  36.4210  36.6935  37.1534

          k = 0.3125-0.0840 0.0000 ( 19976 PWs)   bands (ev):

   -75.5409 -75.4771 -75.4283 -75.3981 -75.3826 -61.4110 -61.3819 -55.4218
   -55.3240 -55.3178 -43.9539 -43.9420 -43.9374 -43.9350 -43.9253 -43.9234
   -43.9226 -43.8929 -43.8853 -43.8751 -43.8621 -43.8502 -43.8495 -43.8482
   -43.8361 -43.8258 -43.8210 -43.8151 -43.8098 -43.8056 -43.8042 -43.8035
   -43.8031 -43.7980 -43.7918 -43.7904 -43.7843 -43.7807 -43.7779 -43.7719
   -43.7647 -43.7640 -43.7638 -43.7632 -43.7626 -29.7561 -29.7124 -29.6698
   -29.6263 -29.6168 -29.5922 -29.5687 -29.5407 -29.5371 -29.5076 -29.4989
   -29.4896 -29.4542 -29.4434 -29.4133 -27.1311 -27.1219 -27.1208 -27.1031
   -27.0948 -27.0911 -23.3481 -23.2867 -23.2614 -23.1890 -23.1866 -23.1854
   -23.1699 -23.1635 -23.1218  15.5379  16.6368  17.1650  17.5571  17.6973
    17.7745  17.8550  17.9153  17.9429  18.1227  18.2099  18.7742  18.8475
    18.8786  19.0560  19.0872  19.1972  19.3038  19.3334  19.7894  19.8405
    19.9544  19.9811  20.0945  20.2545  20.2893  20.3209  20.3964  20.4151
    20.5154  20.5695  20.6218  20.7370  20.7803  20.8563  20.8826  21.1604
    21.2518  21.2821  21.3770  21.8026  22.0680  22.2446  22.3424  22.5965
    22.8178  22.9498  22.9833  23.1456  23.1785  23.2638  23.3421  23.5554
    25.7303  26.8701  26.9016  27.2033  27.6065  28.4839  28.6950  29.1432
    29.5722  29.8654  30.2352  31.1166  32.2375  32.7046  33.9333  34.6324
    35.2263  35.7408  35.9294  36.0526  37.9338

          k = 0.3123-0.0850 0.1480 ( 19987 PWs)   bands (ev):

   -75.5409 -75.4771 -75.4283 -75.3981 -75.3826 -61.4110 -61.3819 -55.4218
   -55.3240 -55.3178 -43.9539 -43.9420 -43.9374 -43.9350 -43.9253 -43.9234
   -43.9226 -43.8929 -43.8853 -43.8751 -43.8621 -43.8502 -43.8495 -43.8482
   -43.8361 -43.8258 -43.8210 -43.8151 -43.8098 -43.8056 -43.8042 -43.8035
   -43.8031 -43.7980 -43.7918 -43.7904 -43.7843 -43.7807 -43.7779 -43.7719
   -43.7647 -43.7640 -43.7638 -43.7632 -43.7626 -29.7558 -29.7120 -29.6689
   -29.6326 -29.6174 -29.5867 -29.5647 -29.5484 -29.5368 -29.5064 -29.4950
   -29.4870 -29.4604 -29.4418 -29.4133 -27.1311 -27.1219 -27.1208 -27.1031
   -27.0948 -27.0910 -23.3482 -23.2867 -23.2614 -23.1892 -23.1865 -23.1847
   -23.1699 -23.1635 -23.1222  15.7444  16.3586  17.0646  17.3699  17.7069
    17.7668  17.7950  17.9327  18.1773  18.3074  18.4063  18.7224  18.8046
    18.8847  19.0261  19.0675  19.1219  19.2736  19.4463  19.6355  19.7179
    19.8187  20.0097  20.0809  20.2078  20.2252  20.2759  20.3239  20.3996
    20.5087  20.5411  20.6745  20.8671  20.8934  20.9680  21.0855  21.1794
    21.2261  21.3388  21.4725  21.7333  22.0757  22.1917  22.5858  22.6651
    22.7887  22.8992  23.0439  23.1790  23.2172  23.3395  23.4164  23.5820
    25.7609  26.0972  26.2538  26.7480  27.4853  28.0281  28.7627  29.6133
    30.7116  30.9405  31.1900  31.3779  31.9807  32.2608  32.6447  34.0051
    35.0111  35.4070  35.9350  36.4868  38.0530

          k = 0.3127-0.0830-0.1480 ( 19990 PWs)   bands (ev):

   -75.5409 -75.4771 -75.4283 -75.3981 -75.3826 -61.4110 -61.3819 -55.4218
   -55.3240 -55.3178 -43.9539 -43.9420 -43.9374 -43.9350 -43.9253 -43.9234
   -43.9226 -43.8929 -43.8853 -43.8751 -43.8621 -43.8502 -43.8495 -43.8482
   -43.8361 -43.8258 -43.8210 -43.8151 -43.8098 -43.8056 -43.8042 -43.8035
   -43.8031 -43.7980 -43.7918 -43.7904 -43.7843 -43.7807 -43.7779 -43.7719
   -43.7647 -43.7640 -43.7638 -43.7632 -43.7626 -29.7562 -29.7124 -29.6697
   -29.6273 -29.6184 -29.5889 -29.5653 -29.5480 -29.5368 -29.5066 -29.4935
   -29.4893 -29.4602 -29.4421 -29.4125 -27.1311 -27.1219 -27.1208 -27.1031
   -27.0949 -27.0910 -23.3482 -23.2867 -23.2614 -23.1879 -23.1872 -23.1857
   -23.1698 -23.1635 -23.1220  15.7415  16.2746  17.2803  17.3726  17.6142
    17.7267  17.8227  17.9762  18.1365  18.3418  18.4875  18.6608  18.6992
    18.9528  19.0309  19.1705  19.2173  19.2955  19.4831  19.5460  19.6137
    19.7556  19.8143  19.9303  20.1735  20.2332  20.2613  20.3563  20.3911
    20.4608  20.5383  20.6743  20.8296  20.9218  21.0028  21.0635  21.2410
    21.4467  21.4551  21.7133  21.8424  22.1410  22.1695  22.2340  22.5119
    22.7014  22.8229  23.0252  23.1196  23.2310  23.2858  23.3743  24.2036
    25.5253  26.1676  26.2306  26.5662  27.5816  27.9844  29.2794  29.8663
    30.0546  30.4413  30.8549  31.3278  32.0583  33.1764  33.4124  33.8143
    34.0845  35.1968  36.6993  37.0169  37.2209

          k = 0.3125 0.0645 0.0000 ( 19967 PWs)   bands (ev):

   -75.5409 -75.4771 -75.4283 -75.3981 -75.3825 -61.4110 -61.3819 -55.4218
   -55.3240 -55.3178 -43.9539 -43.9420 -43.9374 -43.9350 -43.9253 -43.9234
   -43.9226 -43.8928 -43.8853 -43.8751 -43.8621 -43.8502 -43.8495 -43.8482
   -43.8361 -43.8258 -43.8210 -43.8151 -43.8098 -43.8056 -43.8042 -43.8035
   -43.8031 -43.7980 -43.7918 -43.7904 -43.7843 -43.7807 -43.7779 -43.7719
   -43.7647 -43.7640 -43.7638 -43.7632 -43.7626 -29.7574 -29.7129 -29.6679
   -29.6262 -29.6166 -29.5938 -29.5691 -29.5395 -29.5369 -29.5076 -29.4974
   -29.4901 -29.4542 -29.4434 -29.4141 -27.1308 -27.1220 -27.1209 -27.1029
   -27.0949 -27.0911 -23.3481 -23.2865 -23.2616 -23.1884 -23.1866 -23.1856
   -23.1701 -23.1637 -23.1217  15.5092  16.6386  17.1305  17.5886  17.6845
    17.8007  17.8653  17.9309  17.9547  18.1038  18.1585  18.8086  18.8610
    18.9143  19.0621  19.0842  19.1800  19.2970  19.3953  19.7771  19.8919
    19.9553  19.9675  20.0856  20.2022  20.2623  20.3122  20.3784  20.4128
    20.5093  20.5454  20.6199  20.7691  20.8025  20.8890  20.9140  21.1276
    21.1829  21.2515  21.3160  21.8574  22.0690  22.2120  22.3211  22.6552
    22.8668  22.9418  22.9824  23.1337  23.1743  23.2250  23.2780  23.5866
    25.8769  26.8142  27.1726  27.3253  27.6601  28.3899  28.8235  29.0787
    29.5392  29.8542  30.2676  30.8907  31.9784  32.5979  33.8283  34.7624
    35.1441  35.7371  36.0431  36.2565  37.6911

          k = 0.3123 0.0635 0.1480 ( 19983 PWs)   bands (ev):

   -75.5409 -75.4771 -75.4283 -75.3981 -75.3825 -61.4110 -61.3819 -55.4218
   -55.3240 -55.3178 -43.9539 -43.9420 -43.9374 -43.9350 -43.9253 -43.9234
   -43.9226 -43.8928 -43.8853 -43.8751 -43.8621 -43.8502 -43.8495 -43.8482
   -43.8361 -43.8258 -43.8210 -43.8151 -43.8098 -43.8056 -43.8042 -43.8035
   -43.8031 -43.7980 -43.7918 -43.7904 -43.7843 -43.7807 -43.7779 -43.7719
   -43.7647 -43.7640 -43.7638 -43.7632 -43.7626 -29.7574 -29.7127 -29.6676
   -29.6291 -29.6176 -29.5894 -29.5648 -29.5482 -29.5366 -29.5064 -29.4930
   -29.4890 -29.4587 -29.4431 -29.4135 -27.1308 -27.1220 -27.1209 -27.1029
   -27.0949 -27.0911 -23.3482 -23.2865 -23.2616 -23.1889 -23.1863 -23.1850
   -23.1701 -23.1637 -23.1220  15.7130  16.2647  17.2947  17.3742  17.5905
    17.7118  17.8363  17.9370  18.1803  18.3256  18.5236  18.6594  18.7671
    18.9729  19.0464  19.1151  19.2233  19.2945  19.4487  19.5112  19.6329
    19.7676  19.8270  20.0025  20.1928  20.2397  20.2932  20.3701  20.4057
    20.4963  20.5524  20.6610  20.7669  20.8667  20.9437  20.9926  21.2382
    21.4041  21.4641  21.6571  21.7902  22.1468  22.1708  22.2526  22.5178
    22.6980  22.8729  23.0555  23.1556  23.2425  23.2849  23.4088  24.0937
    25.5724  26.2756  26.3186  26.6147  27.8543  27.9279  29.3229  29.8737
    29.9816  30.3051  30.7666  31.2196  32.0606  33.1378  33.3901  33.7237
    34.0392  35.1723  36.4186  37.0686  37.1992

          k = 0.3127 0.0655-0.1480 ( 19986 PWs)   bands (ev):

   -75.5409 -75.4771 -75.4283 -75.3981 -75.3825 -61.4110 -61.3819 -55.4218
   -55.3240 -55.3178 -43.9539 -43.9420 -43.9374 -43.9350 -43.9253 -43.9234
   -43.9226 -43.8929 -43.8853 -43.8751 -43.8621 -43.8502 -43.8495 -43.8482
   -43.8361 -43.8258 -43.8210 -43.8151 -43.8098 -43.8056 -43.8042 -43.8035
   -43.8031 -43.7980 -43.7918 -43.7904 -43.7843 -43.7807 -43.7779 -43.7719
   -43.7647 -43.7640 -43.7638 -43.7632 -43.7626 -29.7572 -29.7124 -29.6669
   -29.6328 -29.6172 -29.5881 -29.5658 -29.5462 -29.5366 -29.5066 -29.4939
   -29.4872 -29.4602 -29.4419 -29.4141 -27.1308 -27.1220 -27.1209 -27.1029
   -27.0950 -27.0911 -23.3482 -23.2865 -23.2616 -23.1877 -23.1873 -23.1851
   -23.1700 -23.1636 -23.1222  15.7187  16.3249  17.0948  17.3935  17.6886
    17.7604  17.7838  17.9089  18.1884  18.3491  18.4450  18.6985  18.7943
    18.8654  19.0622  19.1128  19.1529  19.2633  19.4244  19.6213  19.6905
    19.7924  20.0495  20.1143  20.2267  20.2397  20.2912  20.3362  20.4163
    20.5143  20.5541  20.6727  20.7664  20.8238  20.8970  21.0295  21.1937
    21.2713  21.3498  21.4616  21.7338  22.0689  22.1750  22.5563  22.6312
    22.7803  22.9379  23.0690  23.1768  23.2479  23.3500  23.4265  23.5802
    25.8515  26.0406  26.4401  26.8527  27.3765  28.3086  28.8163  29.5780
    30.4012  30.8011  31.0378  31.5537  31.9456  32.2031  32.6858  34.2363
    34.7963  35.3463  35.6463  36.4286  37.9431

          k = 0.4375 0.2686 0.0000 ( 19966 PWs)   bands (ev):

   -75.5405 -75.4773 -75.4284 -75.3965 -75.3842 -61.4110 -61.3819 -55.4217
   -55.3240 -55.3178 -43.9539 -43.9420 -43.9374 -43.9350 -43.9253 -43.9234
   -43.9226 -43.8929 -43.8853 -43.8751 -43.8621 -43.8502 -43.8495 -43.8482
   -43.8361 -43.8258 -43.8210 -43.8151 -43.8098 -43.8056 -43.8042 -43.8035
   -43.8031 -43.7980 -43.7918 -43.7904 -43.7843 -43.7807 -43.7779 -43.7719
   -43.7646 -43.7640 -43.7638 -43.7632 -43.7626 -29.7505 -29.7223 -29.6644
   -29.6260 -29.6172 -29.5915 -29.5773 -29.5433 -29.5339 -29.5100 -29.5017
   -29.4839 -29.4522 -29.4409 -29.4163 -27.1307 -27.1229 -27.1207 -27.1028
   -27.0955 -27.0909 -23.3477 -23.2871 -23.2621 -23.1878 -23.1869 -23.1859
   -23.1707 -23.1643 -23.1221  16.6130  16.8870  17.1091  17.2910  17.4136
    17.8020  18.1088  18.1389  18.2912  18.3636  18.4156  18.7637  18.8229
    19.0619  19.0976  19.2140  19.3391  19.3756  19.4532  19.5335  19.6205
    19.6648  19.7275  19.8838  19.9384  20.1551  20.1883  20.2771  20.3849
    20.4677  20.6540  20.8201  20.9537  21.0020  21.0741  21.1144  21.2230
    21.4077  21.5431  21.6893  21.7444  21.8249  22.0286  22.4558  22.6007
    22.7470  22.8874  22.9658  23.1440  23.1786  23.3056  23.3368  23.8170
    24.3704  24.7955  25.0001  25.5985  26.1489  27.6546  29.5144  29.6929
    30.3447  30.8258  31.1863  31.6640  32.2916  33.9738  34.3386  34.8694
    35.8676  35.9758  36.6312  36.7475  36.8443

          k = 0.4373 0.2676 0.1480 ( 19985 PWs)   bands (ev):

   -75.5405 -75.4773 -75.4284 -75.3965 -75.3842 -61.4110 -61.3819 -55.4217
   -55.3240 -55.3178 -43.9539 -43.9420 -43.9374 -43.9350 -43.9253 -43.9234
   -43.9226 -43.8929 -43.8853 -43.8751 -43.8621 -43.8502 -43.8495 -43.8482
   -43.8361 -43.8258 -43.8210 -43.8151 -43.8098 -43.8056 -43.8042 -43.8035
   -43.8031 -43.7980 -43.7918 -43.7904 -43.7843 -43.7807 -43.7779 -43.7719
   -43.7646 -43.7640 -43.7638 -43.7632 -43.7626 -29.7511 -29.7229 -29.6647
   -29.6240 -29.6172 -29.5900 -29.5727 -29.5472 -29.5414 -29.5064 -29.4981
   -29.4845 -29.4559 -29.4404 -29.4148 -27.1307 -27.1229 -27.1208 -27.1028
   -27.0955 -27.0909 -23.3476 -23.2871 -23.2621 -23.1887 -23.1867 -23.1856
   -23.1707 -23.1644 -23.1218  16.5927  16.8398  17.0251  17.2527  17.7392
    17.9632  18.0874  18.1978  18.2317  18.5118  18.6308  18.7438  18.8041
    18.8195  18.9720  19.0217  19.2976  19.3914  19.4175  19.5923  19.6462
    19.7234  19.7849  19.8187  19.8477  19.8947  19.9562  20.0236  20.1758
    20.2263  20.5093  20.5667  20.9402  21.1448  21.3912  21.4438  21.5697
    21.5982  21.7626  21.9207  22.1148  22.1444  22.1904  22.2993  22.3796
    22.6568  22.8620  22.9246  23.1408  23.2013  23.3574  23.5464  23.7346
    24.2197  24.4308  24.5225  25.8059  26.2387  28.1734  28.8620  29.1839
    29.9134  30.4366  31.4258  32.0383  33.7511  34.0050  34.7285  35.1308
    35.6363  35.8029  36.4823  36.6247  37.1307

          k = 0.4377 0.2695-0.1480 ( 19976 PWs)   bands (ev):

   -75.5405 -75.4773 -75.4284 -75.3965 -75.3842 -61.4110 -61.3819 -55.4217
   -55.3240 -55.3178 -43.9539 -43.9420 -43.9374 -43.9350 -43.9253 -43.9234
   -43.9226 -43.8929 -43.8853 -43.8751 -43.8621 -43.8502 -43.8495 -43.8482
   -43.8361 -43.8258 -43.8210 -43.8151 -43.8098 -43.8056 -43.8042 -43.8035
   -43.8031 -43.7980 -43.7918 -43.7904 -43.7843 -43.7807 -43.7779 -43.7719
   -43.7646 -43.7640 -43.7638 -43.7632 -43.7626 -29.7509 -29.7226 -29.6647
   -29.6269 -29.6157 -29.5893 -29.5730 -29.5490 -29.5403 -29.5057 -29.4964
   -29.4839 -29.4583 -29.4398 -29.4150 -27.1307 -27.1229 -27.1208 -27.1028
   -27.0955 -27.0909 -23.3477 -23.2871 -23.2621 -23.1886 -23.1867 -23.1855
   -23.1707 -23.1643 -23.1220  16.6702  16.7819  17.0155  17.3234  17.6830
    17.8653  18.0185  18.1528  18.3115  18.4914  18.6001  18.7315  18.8800
    18.9500  19.0131  19.0875  19.1857  19.3148  19.3609  19.4840  19.6733
    19.7457  19.8043  19.8569  19.8906  19.9627  19.9765  20.0565  20.1218
    20.2584  20.6193  20.8246  20.9110  21.0187  21.1661  21.2647  21.3532
    21.4750  21.6773  21.8171  22.3030  22.3943  22.4491  22.4649  22.5067
    22.8458  23.0274  23.0394  23.2091  23.3018  23.3601  23.4422  23.6649
    23.7919  23.8669  24.0308  26.5948  26.7072  27.8903  27.9929  29.6923
    30.0709  30.4421  31.7090  32.0432  33.4307  34.0013  34.4626  35.2589
    35.3375  35.9326  36.1874  36.7524  37.0616

          k = 0.4375 0.4171 0.0000 ( 19974 PWs)   bands (ev):

   -75.5405 -75.4774 -75.4284 -75.3962 -75.3845 -61.4110 -61.3819 -55.4218
   -55.3240 -55.3178 -43.9539 -43.9420 -43.9374 -43.9350 -43.9253 -43.9234
   -43.9226 -43.8929 -43.8853 -43.8751 -43.8621 -43.8502 -43.8495 -43.8482
   -43.8361 -43.8258 -43.8210 -43.8151 -43.8098 -43.8056 -43.8042 -43.8035
   -43.8030 -43.7980 -43.7918 -43.7904 -43.7843 -43.7807 -43.7779 -43.7719
   -43.7646 -43.7640 -43.7638 -43.7632 -43.7626 -29.7482 -29.7217 -29.6647
   -29.6265 -29.6179 -29.5896 -29.5785 -29.5450 -29.5300 -29.5135 -29.5025
   -29.4833 -29.4559 -29.4405 -29.4133 -27.1313 -27.1224 -27.1207 -27.1033
   -27.0951 -27.0909 -23.3478 -23.2872 -23.2621 -23.1880 -23.1866 -23.1860
   -23.1707 -23.1644 -23.1222  16.7007  17.0294  17.3074  17.3620  17.5307
    17.6798  17.7542  17.8482  17.8895  18.0593  18.2499  18.7535  19.1266
    19.2887  19.3328  19.4299  19.5039  19.5686  19.6651  19.7152  19.7540
    19.8830  19.9694  20.0661  20.1456  20.2027  20.2779  20.3436  20.3635
    20.4002  20.4406  20.5421  20.5808  20.7175  20.7679  20.8539  20.9338
    21.0415  21.6794  21.7018  21.7518  22.1354  22.2624  22.5034  22.6263
    22.6445  22.7178  22.7973  22.8806  22.9660  23.6215  23.6547  23.9225
    24.5745  24.8880  25.2216  25.4811  25.6450  25.9983  30.6070  30.7574
    30.9564  31.3425  31.7272  32.2215  32.4549  32.7416  33.0606  33.4328
    34.2317  34.9266  38.0718  38.2656  38.5141

          k = 0.4373 0.4161 0.1480 ( 19977 PWs)   bands (ev):

   -75.5405 -75.4774 -75.4284 -75.3962 -75.3845 -61.4110 -61.3819 -55.4218
   -55.3240 -55.3178 -43.9539 -43.9420 -43.9374 -43.9350 -43.9253 -43.9234
   -43.9226 -43.8929 -43.8853 -43.8751 -43.8621 -43.8502 -43.8495 -43.8482
   -43.8361 -43.8258 -43.8210 -43.8151 -43.8098 -43.8056 -43.8042 -43.8035
   -43.8030 -43.7980 -43.7918 -43.7904 -43.7843 -43.7807 -43.7779 -43.7719
   -43.7646 -43.7640 -43.7638 -43.7632 -43.7626 -29.7487 -29.7226 -29.6645
   -29.6246 -29.6179 -29.5891 -29.5737 -29.5462 -29.5398 -29.5075 -29.5017
   -29.4840 -29.4586 -29.4397 -29.4123 -27.1313 -27.1224 -27.1207 -27.1033
   -27.0951 -27.0908 -23.3476 -23.2872 -23.2621 -23.1886 -23.1867 -23.1858
   -23.1707 -23.1644 -23.1218  16.6541  16.9838  17.1879  17.3436  17.5256
    17.7470  17.8556  18.1087  18.2015  18.3553  18.4339  18.7270  18.7476
    18.8373  19.1956  19.2601  19.3359  19.5178  19.5698  19.6237  19.6767
    19.7526  19.7971  19.8337  19.8833  20.0679  20.1636  20.2237  20.3986
    20.5066  20.6808  20.7919  20.8471  20.8959  21.1208  21.2180  21.2605
    21.4102  21.5300  21.6416  21.7924  21.9265  22.3771  22.4001  22.7308
    22.7872  22.8707  22.9168  22.9687  23.0030  23.1856  23.3966  23.8913
    24.0841  24.6511  24.8518  25.5033  26.5143  27.0125  28.9205  29.6432
    30.3868  31.2356  31.5915  32.0710  33.2665  33.9905  34.2730  34.6535
    35.3392  35.9827  36.1680  37.2152  37.4039

          k = 0.4377 0.4181-0.1480 ( 19985 PWs)   bands (ev):

   -75.5405 -75.4774 -75.4284 -75.3962 -75.3845 -61.4110 -61.3819 -55.4218
   -55.3240 -55.3178 -43.9539 -43.9420 -43.9374 -43.9350 -43.9253 -43.9234
   -43.9226 -43.8929 -43.8853 -43.8751 -43.8621 -43.8502 -43.8495 -43.8482
   -43.8361 -43.8258 -43.8210 -43.8151 -43.8098 -43.8056 -43.8042 -43.8035
   -43.8030 -43.7980 -43.7918 -43.7904 -43.7843 -43.7807 -43.7779 -43.7719
   -43.7646 -43.7640 -43.7638 -43.7632 -43.7626 -29.7487 -29.7225 -29.6646
   -29.6255 -29.6173 -29.5888 -29.5732 -29.5475 -29.5399 -29.5066 -29.5017
   -29.4838 -29.4588 -29.4398 -29.4124 -27.1313 -27.1223 -27.1207 -27.1033
   -27.0951 -27.0908 -23.3476 -23.2872 -23.2621 -23.1889 -23.1865 -23.1857
   -23.1707 -23.1645 -23.1219  16.6622  16.9979  17.1916  17.3404  17.4889
    17.6993  17.8924  18.1436  18.2221  18.3191  18.4006  18.7347  18.7784
    18.9342  19.1385  19.2274  19.3069  19.4440  19.5164  19.6136  19.6929
    19.7777  19.8386  19.8757  19.9379  20.0251  20.1731  20.2747  20.3689
    20.4772  20.7226  20.8165  20.8311  20.9488  21.1010  21.2077  21.2915
    21.4048  21.5164  21.6179  21.7366  21.9873  22.1229  22.4286  22.7877
    22.8470  22.9280  23.0039  23.0329  23.0885  23.2024  23.3909  23.6971
    24.0232  24.3095  25.2708  25.7186  25.9375  27.4937  28.6581  29.5984
    30.4270  31.1502  32.0520  32.2712  32.8315  33.6600  34.1483  34.9430
    35.3076  35.9798  36.5115  36.9447  37.5654

          k = 0.4375 0.5656 0.0000 ( 19981 PWs)   bands (ev):

   -75.5405 -75.4774 -75.4284 -75.3963 -75.3843 -61.4110 -61.3819 -55.4218
   -55.3240 -55.3178 -43.9539 -43.9420 -43.9374 -43.9350 -43.9253 -43.9234
   -43.9226 -43.8929 -43.8853 -43.8751 -43.8621 -43.8502 -43.8495 -43.8482
   -43.8361 -43.8258 -43.8210 -43.8151 -43.8098 -43.8056 -43.8042 -43.8035
   -43.8031 -43.7980 -43.7918 -43.7904 -43.7843 -43.7807 -43.7779 -43.7719
   -43.7646 -43.7640 -43.7638 -43.7632 -43.7626 -29.7476 -29.7218 -29.6674
   -29.6263 -29.6182 -29.5889 -29.5766 -29.5440 -29.5337 -29.5121 -29.5029
   -29.4834 -29.4545 -29.4407 -29.4131 -27.1314 -27.1222 -27.1207 -27.1034
   -27.0950 -27.0908 -23.3477 -23.2875 -23.2617 -23.1887 -23.1874 -23.1852
   -23.1704 -23.1641 -23.1222  16.6767  16.9407  17.1570  17.2992  17.4458
    17.7319  17.9826  18.0915  18.1315  18.2173  18.3042  18.7709  18.9204
    19.2193  19.2834  19.3318  19.4076  19.4659  19.4932  19.5796  19.6303
    19.6996  19.7992  19.8862  19.9334  20.1918  20.2245  20.3536  20.4291
    20.4870  20.6119  20.7027  20.8448  20.8690  20.9222  20.9939  21.0599
    21.2393  21.6284  21.7259  21.8514  21.9729  22.1776  22.2942  22.6180
    22.6933  22.7333  22.8852  23.1267  23.1967  23.3159  23.4699  24.2701
    24.3112  24.4707  25.0767  25.4412  26.0163  26.9978  29.7772  30.1619
    30.6599  31.1109  31.6212  31.7539  32.2078  33.3791  33.7961  33.9916
    35.7541  35.9013  36.8088  36.9968  37.3434

          k = 0.4373 0.5646 0.1480 ( 19976 PWs)   bands (ev):

   -75.5405 -75.4774 -75.4284 -75.3963 -75.3843 -61.4110 -61.3819 -55.4218
   -55.3240 -55.3178 -43.9539 -43.9420 -43.9374 -43.9350 -43.9253 -43.9234
   -43.9226 -43.8929 -43.8853 -43.8751 -43.8621 -43.8502 -43.8495 -43.8482
   -43.8361 -43.8258 -43.8210 -43.8151 -43.8098 -43.8056 -43.8042 -43.8035
   -43.8030 -43.7980 -43.7918 -43.7904 -43.7843 -43.7807 -43.7779 -43.7719
   -43.7646 -43.7640 -43.7638 -43.7632 -43.7626 -29.7481 -29.7223 -29.6676
   -29.6256 -29.6172 -29.5877 -29.5726 -29.5493 -29.5400 -29.5056 -29.4998
   -29.4838 -29.4606 -29.4390 -29.4119 -27.1314 -27.1222 -27.1207 -27.1034
   -27.0951 -27.0908 -23.3477 -23.2875 -23.2617 -23.1890 -23.1869 -23.1857
   -23.1703 -23.1641 -23.1219  16.6661  16.8652  17.1100  17.3050  17.6210
    17.8593  17.9532  18.0993  18.2845  18.3432  18.5806  18.7607  18.8942
    18.9372  19.0316  19.1056  19.2123  19.2576  19.4462  19.6026  19.7434
    19.7991  19.8072  19.8979  19.9473  19.9965  20.0823  20.1325  20.1828
    20.3089  20.4736  20.7607  20.8052  20.9453  21.2404  21.2638  21.4234
    21.5529  21.8039  21.8727  21.9232  22.1390  22.2264  22.2599  22.6119
    22.9376  23.0700  23.1136  23.1436  23.2657  23.3241  23.3974  23.5981
    23.7547  23.9586  24.5194  26.0616  26.4912  28.1222  28.2105  29.4860
    29.9662  30.8575  31.5218  32.4782  33.5892  34.0339  34.2770  34.6943
    34.9814  36.4690  36.6654  36.9618  37.1476

          k = 0.4377 0.5666-0.1480 ( 19990 PWs)   bands (ev):

   -75.5405 -75.4774 -75.4284 -75.3963 -75.3843 -61.4110 -61.3819 -55.4218
   -55.3240 -55.3178 -43.9539 -43.9420 -43.9374 -43.9350 -43.9253 -43.9234
   -43.9226 -43.8929 -43.8853 -43.8751 -43.8621 -43.8502 -43.8495 -43.8482
   -43.8361 -43.8258 -43.8210 -43.8151 -43.8098 -43.8056 -43.8042 -43.8035
   -43.8030 -43.7980 -43.7918 -43.7904 -43.7843 -43.7807 -43.7779 -43.7719
   -43.7646 -43.7640 -43.7638 -43.7632 -43.7626 -29.7482 -29.7226 -29.6674
   -29.6241 -29.6183 -29.5878 -29.5719 -29.5480 -29.5407 -29.5074 -29.5014
   -29.4840 -29.4578 -29.4398 -29.4120 -27.1314 -27.1222 -27.1208 -27.1034
   -27.0950 -27.0908 -23.3476 -23.2875 -23.2617 -23.1891 -23.1870 -23.1856
   -23.1704 -23.1642 -23.1218  16.6292  16.8798  17.0753  17.3245  17.6721
    17.8714  17.9579  18.1697  18.2165  18.4531  18.6513  18.6979  18.7643
    18.7925  18.9839  19.0697  19.3953  19.4361  19.5799  19.6248  19.6874
    19.7502  19.7809  19.8465  19.8713  19.9326  20.0026  20.1004  20.2312
    20.3411  20.4141  20.6154  20.8773  20.9401  21.3723  21.4325  21.5793
    21.5894  21.7310  21.8783  21.9218  22.0326  22.2349  22.3749  22.4376
    22.5422  22.8928  23.0179  23.1252  23.2113  23.2459  23.3032  24.0445
    24.1093  24.3563  24.7515  25.3702  26.4635  27.7677  28.9074  29.5488
    30.1512  30.5165  30.8328  32.7922  33.8265  34.0441  34.5699  34.8796
    34.9473  35.9418  36.8296  36.9977  37.3429

          k = 0.4375-0.1770 0.0000 ( 19970 PWs)   bands (ev):

   -75.5406 -75.4773 -75.4284 -75.3967 -75.3839 -61.4110 -61.3819 -55.4217
   -55.3240 -55.3178 -43.9539 -43.9420 -43.9374 -43.9350 -43.9253 -43.9234
   -43.9226 -43.8929 -43.8853 -43.8751 -43.8621 -43.8502 -43.8495 -43.8482
   -43.8361 -43.8258 -43.8210 -43.8151 -43.8098 -43.8056 -43.8042 -43.8035
   -43.8031 -43.7980 -43.7918 -43.7904 -43.7843 -43.7807 -43.7779 -43.7719
   -43.7646 -43.7640 -43.7638 -43.7632 -43.7626 -29.7508 -29.7203 -29.6684
   -29.6257 -29.6203 -29.5900 -29.5744 -29.5404 -29.5372 -29.5099 -29.5024
   -29.4843 -29.4530 -29.4415 -29.4129 -27.1313 -27.1223 -27.1207 -27.1033
   -27.0951 -27.0909 -23.3477 -23.2877 -23.2614 -23.1891 -23.1875 -23.1850
   -23.1701 -23.1638 -23.1221  16.4617  16.8274  17.1603  17.3321  17.4323
    17.8356  18.0331  18.1339  18.2901  18.4098  18.5939  18.7522  18.8828
    18.9897  19.1011  19.1841  19.2637  19.4188  19.4788  19.5224  19.6442
    19.7244  19.7478  19.7995  19.9667  20.1306  20.2290  20.2835  20.3898
    20.4815  20.7794  20.8810  20.8988  20.9520  21.0495  21.1140  21.2040
    21.3282  21.4131  21.5784  21.6076  21.8154  22.0624  22.4388  22.6538
    22.7533  22.8894  22.9291  23.0639  23.1248  23.2217  23.3443  23.6837
    24.5306  24.9937  25.7898  25.8804  26.0307  28.5733  28.7914  29.6415
    29.8990  30.4259  30.8480  31.7201  32.6143  33.8600  34.4584  35.1606
    35.2326  35.4477  35.5900  36.4174  37.2890

          k = 0.4373-0.1780 0.1480 ( 19988 PWs)   bands (ev):

   -75.5406 -75.4773 -75.4284 -75.3967 -75.3839 -61.4110 -61.3819 -55.4217
   -55.3240 -55.3178 -43.9539 -43.9420 -43.9374 -43.9350 -43.9253 -43.9234
   -43.9226 -43.8929 -43.8853 -43.8751 -43.8621 -43.8502 -43.8495 -43.8482
   -43.8361 -43.8258 -43.8210 -43.8151 -43.8098 -43.8056 -43.8042 -43.8035
   -43.8031 -43.7980 -43.7918 -43.7904 -43.7843 -43.7807 -43.7779 -43.7719
   -43.7646 -43.7640 -43.7638 -43.7632 -43.7626 -29.7511 -29.7206 -29.6685
   -29.6279 -29.6188 -29.5871 -29.5704 -29.5495 -29.5385 -29.5063 -29.4975
   -29.4842 -29.4597 -29.4398 -29.4119 -27.1313 -27.1223 -27.1208 -27.1033
   -27.0951 -27.0908 -23.3477 -23.2877 -23.2614 -23.1895 -23.1871 -23.1853
   -23.1700 -23.1638 -23.1220  16.5924  16.7706  16.9000  17.3490  17.7433
    17.8485  18.0434  18.1172  18.3240  18.4458  18.6825  18.8100  18.9077
    18.9573  19.0290  19.1497  19.2011  19.3364  19.4448  19.5259  19.6156
    19.7130  19.7590  19.7982  19.8712  19.9581  20.0130  20.0805  20.1262
    20.2749  20.7781  20.8310  20.8930  20.9927  21.0363  21.1756  21.2436
    21.4399  21.5639  21.7571  22.1746  22.3819  22.4620  22.6267  22.6889
    22.7075  22.8854  23.0310  23.0589  23.2292  23.2531  23.3102  23.5569
    23.7591  24.5030  24.7107  26.8080  27.2992  27.3481  27.9484  29.5885
    30.2081  30.8290  31.1082  32.3861  33.0557  33.3556  34.0686  34.4309
    34.6613  36.4012  36.7692  37.1860  37.4504

          k = 0.4377-0.1760-0.1480 ( 19979 PWs)   bands (ev):

   -75.5406 -75.4773 -75.4284 -75.3967 -75.3839 -61.4110 -61.3819 -55.4217
   -55.3240 -55.3178 -43.9539 -43.9420 -43.9374 -43.9350 -43.9253 -43.9234
   -43.9226 -43.8929 -43.8853 -43.8751 -43.8621 -43.8502 -43.8495 -43.8482
   -43.8361 -43.8258 -43.8210 -43.8151 -43.8098 -43.8056 -43.8042 -43.8035
   -43.8031 -43.7980 -43.7918 -43.7904 -43.7843 -43.7807 -43.7779 -43.7719
   -43.7646 -43.7640 -43.7638 -43.7632 -43.7626 -29.7513 -29.7207 -29.6688
   -29.6247 -29.6198 -29.5881 -29.5705 -29.5494 -29.5387 -29.5064 -29.4975
   -29.4851 -29.4589 -29.4400 -29.4116 -27.1313 -27.1223 -27.1208 -27.1033
   -27.0951 -27.0908 -23.3476 -23.2877 -23.2614 -23.1890 -23.1870 -23.1860
   -23.1700 -23.1638 -23.1219  16.5222  16.8419  16.9280  17.2047  17.8756
    17.9495  18.0982  18.1950  18.2505  18.3528  18.5439  18.7836  18.8697
    19.0099  19.0662  19.2756  19.3221  19.3725  19.4536  19.5179  19.5492
    19.6345  19.7150  19.7675  19.8935  19.9281  19.9885  20.0636  20.1060
    20.2337  20.4699  20.7655  20.9722  21.0136  21.1600  21.3406  21.5590
    21.5937  21.7338  21.8208  22.1243  22.2024  22.2236  22.2518  22.4482
    22.5581  22.7790  23.0017  23.0604  23.0923  23.1654  23.3601  24.2556
    24.5074  24.5727  24.7916  25.6939  27.0454  27.5991  28.7167  29.5912
    29.9203  30.6166  30.8450  32.7226  33.0376  33.3378  33.9517  34.7135
    35.2725  35.9092  36.9959  37.2440  37.5660

          k = 0.4375-0.0285 0.0000 ( 19956 PWs)   bands (ev):

   -75.5406 -75.4772 -75.4284 -75.3970 -75.3836 -61.4110 -61.3819 -55.4217
   -55.3240 -55.3178 -43.9539 -43.9420 -43.9374 -43.9350 -43.9253 -43.9234
   -43.9226 -43.8929 -43.8853 -43.8751 -43.8621 -43.8502 -43.8495 -43.8482
   -43.8361 -43.8258 -43.8210 -43.8151 -43.8098 -43.8056 -43.8042 -43.8035
   -43.8031 -43.7980 -43.7918 -43.7904 -43.7843 -43.7807 -43.7779 -43.7719
   -43.7646 -43.7640 -43.7638 -43.7632 -43.7626 -29.7548 -29.7183 -29.6660
   -29.6255 -29.6234 -29.5923 -29.5736 -29.5392 -29.5340 -29.5096 -29.5011
   -29.4858 -29.4550 -29.4419 -29.4112 -27.1312 -27.1222 -27.1208 -27.1032
   -27.0950 -27.0909 -23.3477 -23.2875 -23.2615 -23.1887 -23.1870 -23.1857
   -23.1702 -23.1638 -23.1221  16.2796  16.9390  17.2597  17.4048  17.6060
    17.7292  17.8049  17.8853  17.9370  18.0662  18.6905  18.7631  19.0473
    19.1776  19.2597  19.3418  19.4075  19.5075  19.7167  19.7684  19.8103
    19.8902  20.0381  20.0958  20.1850  20.2822  20.3360  20.4046  20.4513
    20.5187  20.5649  20.6021  20.6397  20.6887  20.7438  20.8014  20.8968
    20.9176  21.1137  21.1264  21.6997  22.0605  22.2709  22.2893  22.6500
    22.6856  22.7384  22.8064  22.9006  22.9582  23.5584  23.6383  23.8894
    24.6578  25.0148  26.2598  26.5169  26.6564  27.0218  29.6971  30.0076
    30.3888  30.8370  31.1616  31.6598  32.2729  32.4002  32.9312  33.6844
    34.1681  34.8914  37.1152  37.3411  37.8273

          k = 0.4373-0.0295 0.1480 ( 19968 PWs)   bands (ev):

   -75.5407 -75.4772 -75.4284 -75.3970 -75.3836 -61.4110 -61.3819 -55.4217
   -55.3240 -55.3178 -43.9539 -43.9420 -43.9374 -43.9350 -43.9253 -43.9234
   -43.9226 -43.8929 -43.8853 -43.8751 -43.8621 -43.8502 -43.8495 -43.8482
   -43.8361 -43.8258 -43.8210 -43.8151 -43.8098 -43.8056 -43.8042 -43.8035
   -43.8031 -43.7980 -43.7918 -43.7904 -43.7843 -43.7807 -43.7779 -43.7719
   -43.7646 -43.7640 -43.7638 -43.7632 -43.7626 -29.7549 -29.7186 -29.6655
   -29.6294 -29.6220 -29.5882 -29.5691 -29.5475 -29.5361 -29.5063 -29.4973
   -29.4856 -29.4599 -29.4406 -29.4107 -27.1312 -27.1222 -27.1208 -27.1033
   -27.0950 -27.0908 -23.3476 -23.2875 -23.2615 -23.1895 -23.1869 -23.1852
   -23.1702 -23.1638 -23.1220  16.4293  16.8591  17.0228  17.2932  17.5058
    17.6001  18.0981  18.1741  18.2336  18.3277  18.7050  18.7625  18.8663
    19.0424  19.1678  19.2654  19.3537  19.4919  19.5850  19.6418  19.6884
    19.7346  19.7719  19.8645  19.9958  20.1420  20.1831  20.2794  20.3949
    20.4960  20.6032  20.7310  20.7556  20.9009  20.9519  21.0608  21.2023
    21.2384  21.3661  21.5920  21.6508  21.8102  22.0846  22.1902  22.4792
    22.8249  22.8716  23.0122  23.0696  23.1717  23.3189  23.4069  24.1982
    24.4153  25.1794  25.6605  25.9377  26.3806  28.0561  29.2852  30.0991
    30.3148  30.5456  30.9344  31.5352  32.0864  32.9987  33.2097  34.3342
    35.2900  35.9088  36.1893  36.4113  36.6357

          k = 0.4377-0.0275-0.1480 ( 19978 PWs)   bands (ev):

   -75.5407 -75.4772 -75.4284 -75.3970 -75.3836 -61.4110 -61.3819 -55.4217
   -55.3240 -55.3178 -43.9539 -43.9420 -43.9374 -43.9350 -43.9253 -43.9234
   -43.9226 -43.8929 -43.8853 -43.8751 -43.8621 -43.8502 -43.8495 -43.8482
   -43.8361 -43.8258 -43.8210 -43.8151 -43.8098 -43.8056 -43.8042 -43.8035
   -43.8031 -43.7980 -43.7918 -43.7904 -43.7843 -43.7807 -43.7779 -43.7719
   -43.7646 -43.7640 -43.7638 -43.7632 -43.7626 -29.7550 -29.7186 -29.6657
   -29.6283 -29.6223 -29.5888 -29.5699 -29.5466 -29.5361 -29.5063 -29.4967
   -29.4861 -29.4607 -29.4403 -29.4106 -27.1312 -27.1222 -27.1208 -27.1032
   -27.0950 -27.0908 -23.3476 -23.2875 -23.2615 -23.1888 -23.1870 -23.1859
   -23.1701 -23.1638 -23.1220  16.4263  16.8343  17.0600  17.3079  17.4823
    17.5807  18.1003  18.1568  18.2500  18.3742  18.7203  18.7548  18.8272
    19.1451  19.1718  19.2668  19.3620  19.4357  19.4824  19.6392  19.6590
    19.7027  19.7859  19.9497  19.9924  20.1427  20.1813  20.2798  20.3725
    20.4526  20.6007  20.7200  20.8077  20.9441  21.0383  21.1245  21.1392
    21.2143  21.3355  21.4698  21.6840  21.9580  22.0443  22.2094  22.5374
    22.7129  22.8338  22.9064  23.0219  23.1429  23.3084  23.4074  24.3907
    24.7923  25.1980  25.3289  25.8361  26.3194  28.4112  29.1280  29.8268
    30.1020  30.8196  31.0981  31.5628  31.9384  32.9056  33.6421  34.2185
    35.1040  36.0280  36.1740  36.3878  36.6071

          k = 0.4375 0.1200 0.0000 ( 19973 PWs)   bands (ev):

   -75.5406 -75.4772 -75.4284 -75.3969 -75.3837 -61.4110 -61.3819 -55.4217
   -55.3240 -55.3178 -43.9539 -43.9420 -43.9374 -43.9350 -43.9253 -43.9234
   -43.9226 -43.8929 -43.8853 -43.8751 -43.8621 -43.8502 -43.8495 -43.8482
   -43.8361 -43.8258 -43.8210 -43.8151 -43.8098 -43.8056 -43.8042 -43.8035
   -43.8031 -43.7980 -43.7918 -43.7904 -43.7843 -43.7807 -43.7779 -43.7719
   -43.7646 -43.7640 -43.7638 -43.7632 -43.7626 -29.7542 -29.7200 -29.6646
   -29.6257 -29.6206 -29.5929 -29.5749 -29.5396 -29.5351 -29.5092 -29.5006
   -29.4852 -29.4530 -29.4418 -29.4141 -27.1308 -27.1227 -27.1208 -27.1029
   -27.0954 -27.0909 -23.3477 -23.2872 -23.2618 -23.1882 -23.1868 -23.1860
   -23.1705 -23.1640 -23.1221  16.3682  16.8442  17.2416  17.3632  17.4963
    17.7780  17.8594  18.0804  18.1533  18.2342  18.6868  18.7642  18.9472
    19.1458  19.1952  19.2791  19.2981  19.4100  19.4856  19.6475  19.6695
    19.7308  19.8223  19.8757  20.0081  20.1764  20.3078  20.3495  20.4231
    20.5351  20.7455  20.7746  20.8061  20.8425  20.9417  21.0089  21.0744
    21.1700  21.2742  21.4462  21.6995  21.8245  22.2354  22.3707  22.6704
    22.7534  22.7598  22.8757  22.9685  23.0960  23.1896  23.4683  24.0430
    24.2998  25.4073  25.6065  26.1556  26.3820  28.0018  29.3190  29.4682
    30.2946  30.5097  30.8053  31.8315  32.5829  33.1072  33.6725  34.3969
    34.8812  35.5557  36.0505  36.2311  38.1096

          k = 0.4373 0.1191 0.1480 ( 19983 PWs)   bands (ev):

   -75.5406 -75.4772 -75.4284 -75.3969 -75.3837 -61.4110 -61.3819 -55.4217
   -55.3240 -55.3178 -43.9539 -43.9420 -43.9374 -43.9350 -43.9253 -43.9234
   -43.9226 -43.8929 -43.8853 -43.8751 -43.8621 -43.8502 -43.8495 -43.8482
   -43.8361 -43.8258 -43.8210 -43.8151 -43.8098 -43.8056 -43.8042 -43.8035
   -43.8031 -43.7980 -43.7918 -43.7904 -43.7843 -43.7807 -43.7779 -43.7719
   -43.7646 -43.7640 -43.7638 -43.7632 -43.7626 -29.7545 -29.7203 -29.6648
   -29.6271 -29.6194 -29.5898 -29.5705 -29.5482 -29.5381 -29.5060 -29.4954
   -29.4857 -29.4577 -29.4412 -29.4130 -27.1308 -27.1227 -27.1209 -27.1029
   -27.0953 -27.0909 -23.3476 -23.2872 -23.2618 -23.1891 -23.1865 -23.1856
   -23.1705 -23.1641 -23.1219  16.4740  16.8329  16.9544  17.2233  17.7444
    17.8347  18.0032  18.1780  18.3197  18.3943  18.5934  18.7723  18.8312
    19.0115  19.1587  19.3207  19.3576  19.4003  19.4646  19.5370  19.6016
    19.7095  19.7349  19.8297  19.9617  20.0004  20.0449  20.1350  20.1663
    20.2626  20.4443  20.7625  20.8128  20.9784  21.1292  21.2588  21.4401
    21.4829  21.7119  21.8034  21.8730  21.9392  22.3235  22.3585  22.4584
    22.5528  22.6938  22.8193  23.0709  23.1121  23.2217  23.3871  24.5660
    24.6467  24.9032  24.9752  25.4147  27.0949  27.8440  28.8152  29.6944
    29.9351  30.2920  31.3806  32.4648  32.8212  33.1253  33.6017  33.9417
    35.3420  35.5616  36.8022  37.2262  37.6105

          k = 0.4377 0.1210-0.1480 ( 19966 PWs)   bands (ev):

   -75.5406 -75.4772 -75.4284 -75.3969 -75.3837 -61.4110 -61.3819 -55.4217
   -55.3240 -55.3178 -43.9539 -43.9420 -43.9374 -43.9350 -43.9253 -43.9234
   -43.9226 -43.8929 -43.8853 -43.8751 -43.8621 -43.8502 -43.8495 -43.8482
   -43.8361 -43.8258 -43.8210 -43.8151 -43.8098 -43.8056 -43.8042 -43.8035
   -43.8031 -43.7980 -43.7918 -43.7904 -43.7843 -43.7807 -43.7779 -43.7719
   -43.7646 -43.7640 -43.7638 -43.7632 -43.7626 -29.7543 -29.7203 -29.6644
   -29.6292 -29.6192 -29.5892 -29.5710 -29.5466 -29.5380 -29.5064 -29.4958
   -29.4849 -29.4586 -29.4405 -29.4134 -27.1308 -27.1227 -27.1208 -27.1029
   -27.0954 -27.0909 -23.3477 -23.2872 -23.2618 -23.1887 -23.1871 -23.1854
   -23.1704 -23.1640 -23.1220  16.5144  16.8161  16.9102  17.3156  17.6509
    17.9063  17.9391  18.1244  18.2749  18.3595  18.6851  18.8025  18.9155
    18.9890  19.0823  19.1654  19.3268  19.4264  19.5159  19.6144  19.6384
    19.7313  19.7845  19.8368  19.9149  19.9654  20.0501  20.1101  20.2453
    20.2938  20.6356  20.8101  20.8587  20.9429  21.0224  21.0504  21.2342
    21.4892  21.6354  21.7392  21.9241  22.0808  22.2751  22.4088  22.5571
    22.6224  22.9274  23.0701  23.1516  23.2243  23.3113  23.4219  23.6753
    23.8961  24.9295  25.1273  26.4380  27.0732  27.4563  28.6248  29.4983
    30.0996  30.9448  31.7310  31.7693  32.7814  33.2267  33.4652  33.9702
    34.6759  36.2213  36.6804  36.9991  37.5473

     the Fermi energy is    23.1402 ev

!    total energy              =   -6321.44671074 Ry
     estimated scf accuracy    <          5.0E-09 Ry
     smearing contrib. (-TS)   =      -0.00627347 Ry
     internal energy E=F+TS    =   -6321.44043728 Ry

     The total energy is F=E-TS. E is the sum of the following terms:
     one-electron contribution =   -4131.50175564 Ry
     hartree contribution      =    2222.81599297 Ry
     xc contribution           =    -492.79265111 Ry
     ewald contribution        =   -3919.96202349 Ry

     convergence has been achieved in  24 iterations

     Forces acting on atoms (cartesian axes, Ry/au):

     atom    1 type  1   force =     0.00010332    0.00077376    0.00201553
     atom    2 type  1   force =     0.00001771   -0.00140764    0.00047409
     atom    3 type  2   force =    -0.00021163    0.00051521   -0.00237383
     atom    4 type  2   force =    -0.00009550   -0.00122782   -0.00377765
     atom    5 type  2   force =     0.00012360    0.00034713    0.00097813
     atom    6 type  2   force =    -0.00003915    0.00097687   -0.00108128
     atom    7 type  2   force =    -0.00007469    0.00193948    0.00137292
     atom    8 type  3   force =     0.00013993   -0.00000949    0.00148303
     atom    9 type  3   force =     0.00001185   -0.00023058    0.00043698
     atom   10 type  3   force =     0.00002455   -0.00167691    0.00047208

     Total force =     0.006556     Total SCF correction =     0.000546


     Computing stress (Cartesian axis) and pressure

          total   stress  (Ry/bohr**3)                   (kbar)     P=      -22.01
  -0.00012182  -0.00001009  -0.00000384          -17.92       -1.48       -0.57
  -0.00001009  -0.00016506  -0.00001804           -1.48      -24.28       -2.65
  -0.00000384  -0.00001804  -0.00016199           -0.57       -2.65      -23.83


     Writing all to output data dir /home/tenant3/nexus-mat/dft/runs/dft-paper-worker-02/jobs/Pt-Pd-Rh-01_Pd2Pt5Rh3/tmp/Pt-Pd-Rh-01_Pd2Pt5Rh3.save/ :
     XML data file, charge density, pseudopotentials, collected wavefunctions

     init_run     :   1145.24s CPU   1151.25s WALL (       1 calls)
     electrons    :  37343.28s CPU  38500.66s WALL (       1 calls)
     forces       :    308.54s CPU    309.46s WALL (       1 calls)
     stress       :   1008.97s CPU   1012.53s WALL (       1 calls)

     Called by init_run:
     wfcinit      :   1133.07s CPU   1137.65s WALL (       1 calls)
     potinit      :      0.83s CPU      0.89s WALL (       1 calls)
     hinit0       :      0.88s CPU      0.91s WALL (       1 calls)

     Called by electrons:
     c_bands      :  33609.41s CPU  33734.62s WALL (      25 calls)
     sum_band     :   3615.73s CPU   4628.45s WALL (      25 calls)
     v_of_rho     :      8.98s CPU      9.68s WALL (      25 calls)
     newd         :    117.35s CPU    137.40s WALL (      25 calls)
     mix_rho      :      1.63s CPU      1.64s WALL (      25 calls)

     Called by c_bands:
     init_us_2    :     61.82s CPU     61.89s WALL (    3816 calls)
     cegterg      :  33395.23s CPU  33519.98s WALL (    1800 calls)

     Called by *egterg:
     cdiaghg      :    138.14s CPU    138.17s WALL (    4659 calls)
     h_psi        :  13167.15s CPU  13203.90s WALL (    4803 calls)
     s_psi        :   4356.27s CPU   4356.71s WALL (    4803 calls)
     g_psi        :     14.49s CPU     14.50s WALL (    2931 calls)

     Called by h_psi:
     h_psi:calbec :   5441.88s CPU   5442.40s WALL (    4803 calls)
     vloc_psi     :   3338.22s CPU   3340.95s WALL (    4803 calls)
                                        0.00s GPU  (    4803 calls)
     add_vuspsi   :   4364.90s CPU   4365.34s WALL (    4803 calls)

     General routines
     calbec       :   9270.32s CPU   9271.11s WALL (    7827 calls)
     fft          :      6.41s CPU      6.42s WALL (     349 calls)
     ffts         :      0.29s CPU      0.29s WALL (      50 calls)
     fftw         :   3506.02s CPU   3508.34s WALL ( 1391570 calls)
     interpolate  :      0.76s CPU      0.76s WALL (      25 calls)


     PWSCF        :     11h 3m CPU     11h22m WALL


   This run was terminated on:   5:12:39  21Jul2026            

=------------------------------------------------------------------------------=
   JOB DONE.
=------------------------------------------------------------------------------=
