
     Program PWSCF v.7.5 starts on 21Jul2026 at  1:41:20 

     This program is part of the open-source Quantum ESPRESSO suite
     for quantum simulation of materials; please cite
         "P. Giannozzi et al., J. Phys.:Condens. Matter 21 395502 (2009);
         "P. Giannozzi et al., J. Phys.:Condens. Matter 29 465901 (2017);
         "P. Giannozzi et al., J. Chem. Phys. 152 154105 (2020);
          URL http://www.quantum-espresso.org", 
     in publications or presentations arising from this work. More details at
     http://www.quantum-espresso.org/quote

     Serial multi-threaded version, running on    1 processor cores
     4294 MiB available memory on the printing compute node when the environment starts

     Reading input from /home/tenant3/nexus-mat/dft/runs/dft-paper-worker-08/jobs/Pt-Pd-15_Pd4Pt4/input.in

     Current dimensions of program PWSCF are:
     Max number of different atomic species (ntypx) = 10
     Max number of k-points (npk) =  40000
     Max angular momentum in pseudopotentials (lmaxx) =  4
     file Pt.pbe-spfn-rrkjus_psl.1.0.0.UPF: wavefunction(s)  5P renormalized


     G-vector sticks info
     --------------------
     sticks:   dense  smooth     PW     G-vecs:    dense   smooth      PW
     Sum        6505    3261    913               373519   132093   19473

     Using Slab Decomposition



     bravais-lattice index     =            0
     lattice parameter (alat)  =       8.8486  a.u.
     unit-cell volume          =     847.3996 (a.u.)^3
     number of atoms/cell      =            8
     number of atomic types    =            2
     number of electrons       =       200.00
     number of Kohn-Sham states=          120
     kinetic-energy cutoff     =     110.0000  Ry
     charge density cutoff     =     880.0000  Ry
     scf convergence threshold =      1.0E-08
     mixing beta               =       0.3000
     number of iterations used =            8  plain     mixing
     Exchange-correlation= PBE
                           (   1   4   3   4   0   0   0)

     celldm(1)=   8.848635  celldm(2)=   0.000000  celldm(3)=   0.000000
     celldm(4)=   0.000000  celldm(5)=   0.000000  celldm(6)=   0.000000

     crystal axes: (cart. coord. in units of alat)
               a(1) = (   0.999999   0.000000   0.001004 )  
               a(2) = (   0.001171   1.030977  -0.592984 )  
               a(3) = (   0.000000   0.000000   1.186344 )  

     reciprocal axes: (cart. coord. in units 2 pi/alat)
               b(1) = (  1.000001 -0.001136  0.000000 )  
               b(2) = (  0.000000  0.969953  0.000000 )  
               b(3) = ( -0.000847  0.484824  0.842926 )  


     PseudoPot. # 1 for Pd read from file:
     /home/tenant3/nexus-mat/dft/pseudo/SSSP_1.3.0_PBE_precision/Pd_ONCV_PBE-1.0.oncvpsp.upf
     MD5 check sum: eb77f42b51d86fb18e25f68156a31cf1
     Pseudo is Norm-conserving, Zval = 18.0
     Generated using ONCVPSP code by D. R. Hamann
     Using radial grid of 1410 points,  6 beta functions with: 
                l(1) =   0
                l(2) =   0
                l(3) =   1
                l(4) =   1
                l(5) =   2
                l(6) =   2

     PseudoPot. # 2 for Pt read from file:
     /home/tenant3/nexus-mat/dft/pseudo/SSSP_1.3.0_PBE_precision/Pt.pbe-spfn-rrkjus_psl.1.0.0.UPF
     MD5 check sum: ed006ba81d2b6b3b17616bb61ae12f04
     Pseudo is Ultrasoft + core correction, Zval = 32.0
     Generated using "atomic" code by A. Dal Corso  v.5.1
     Using radial grid of 1277 points,  8 beta functions with: 
                l(1) =   0
                l(2) =   0
                l(3) =   1
                l(4) =   1
                l(5) =   2
                l(6) =   2
                l(7) =   3
                l(8) =   3
     Q(r) pseudized with 0 coefficients 


     atomic species   valence    mass     pseudopotential
     Pd               18.00   106.42000     Pd( 1.00)
     Pt               32.00   195.08400     Pt( 1.00)

     No symmetry found



   Cartesian axes

     site n.     atom                  positions (alat units)
         1        Pd     tau(   1) = (   0.9571741   0.3701681  -0.0610039  )
         2        Pd     tau(   2) = (   0.9575220   0.3702347   0.5322061  )
         3        Pd     tau(   3) = (   0.4570276   0.0322160   1.1254906  )
         4        Pd     tau(   4) = (   0.4570447   0.0322906   0.5322727  )
         5        Pt     tau(   5) = (   0.9582304   0.8851116   0.2360768  )
         6        Pt     tau(   6) = (   0.9579524   0.8851121  -0.3570571  )
         7        Pt     tau(   7) = (   0.4575980   0.5483547   0.2353670  )
         8        Pt     tau(   8) = (   0.4576176   0.5482931   0.8285799  )

     number of k points=   108  Marzari-Vanderbilt smearing, width (Ry)=  0.0200

     Number of k-points >= 100: set verbosity='high' to print them.

     Dense  grid:   373519 G-vectors     FFT dimensions: (  90, 100, 100)

     Smooth grid:   132093 G-vectors     FFT dimensions: (  60,  72,  72)

     Estimated max dynamical RAM per process >       6.74 GB

     Initial potential from superposition of free atoms

     starting charge     199.9980, renormalised to     200.0000
     Starting wfcs are  108 randomized atomic wfcs +   12 random wfcs

     total cpu time spent up to now is     2190.5 secs

     Self-consistent Calculation

     iteration #  1     ecut=   110.00 Ry     beta= 0.30
     Davidson diagonalization with overlap
     ethr =  1.00E-02,  avg # of iterations =  3.0

     Threshold (ethr) on eigenvalues was too large:
     Diagonalizing with lowered threshold

     Davidson diagonalization with overlap
     ethr =  6.34E-04,  avg # of iterations =  1.0

     total cpu time spent up to now is    17058.0 secs

     total energy              =   -5143.77871497 Ry
     estimated scf accuracy    <       1.26846718 Ry

     iteration #  2     ecut=   110.00 Ry     beta= 0.30
     Davidson diagonalization with overlap
     ethr =  6.34E-04,  avg # of iterations =  2.1

     total cpu time spent up to now is    23675.8 secs

     total energy              =   -5143.92959308 Ry
     estimated scf accuracy    <       2.76841943 Ry

     iteration #  3     ecut=   110.00 Ry     beta= 0.30
     Davidson diagonalization with overlap
     ethr =  6.34E-04,  avg # of iterations =  2.0

     total cpu time spent up to now is    29972.4 secs

     total energy              =   -5144.20827703 Ry
     estimated scf accuracy    <       0.02961428 Ry

     iteration #  4     ecut=   110.00 Ry     beta= 0.30
     Davidson diagonalization with overlap
     ethr =  1.48E-05,  avg # of iterations =  2.9

     total cpu time spent up to now is    36523.9 secs

     total energy              =   -5144.21066361 Ry
     estimated scf accuracy    <       0.00299880 Ry

     iteration #  5     ecut=   110.00 Ry     beta= 0.30
     Davidson diagonalization with overlap
     c_bands:  1 eigenvalues not converged
     c_bands:  1 eigenvalues not converged
     ethr =  1.50E-06,  avg # of iterations =  5.5

     total cpu time spent up to now is    43482.7 secs

     total energy              =   -5144.21084962 Ry
     estimated scf accuracy    <       0.00089784 Ry

     iteration #  6     ecut=   110.00 Ry     beta= 0.30
     Davidson diagonalization with overlap
     ethr =  4.49E-07,  avg # of iterations =  1.0

     total cpu time spent up to now is    48840.6 secs

     total energy              =   -5144.21093471 Ry
     estimated scf accuracy    <       0.00034131 Ry

     iteration #  7     ecut=   110.00 Ry     beta= 0.30
     Davidson diagonalization with overlap
     ethr =  1.71E-07,  avg # of iterations =  1.1

     total cpu time spent up to now is    54254.0 secs

     total energy              =   -5144.21095186 Ry
     estimated scf accuracy    <       0.00022225 Ry

     iteration #  8     ecut=   110.00 Ry     beta= 0.30
     Davidson diagonalization with overlap
     ethr =  1.11E-07,  avg # of iterations =  1.0

     total cpu time spent up to now is    59418.5 secs

     total energy              =   -5144.21096599 Ry
     estimated scf accuracy    <       0.00000500 Ry

     iteration #  9     ecut=   110.00 Ry     beta= 0.30
     Davidson diagonalization with overlap
     ethr =  2.50E-09,  avg # of iterations =  1.0

     total cpu time spent up to now is    63868.7 secs

     total energy              =   -5144.21096583 Ry
     estimated scf accuracy    <       0.00000891 Ry

     iteration # 10     ecut=   110.00 Ry     beta= 0.30
     Davidson diagonalization with overlap
     ethr =  2.50E-09,  avg # of iterations =  1.0

     total cpu time spent up to now is    67577.8 secs

     total energy              =   -5144.21096645 Ry
     estimated scf accuracy    <       0.00000152 Ry

     iteration # 11     ecut=   110.00 Ry     beta= 0.30
     Davidson diagonalization with overlap
     ethr =  7.58E-10,  avg # of iterations =  1.0

     total cpu time spent up to now is    70862.6 secs

     total energy              =   -5144.21096650 Ry
     estimated scf accuracy    <       0.00000104 Ry

     iteration # 12     ecut=   110.00 Ry     beta= 0.30
     Davidson diagonalization with overlap
     ethr =  5.18E-10,  avg # of iterations =  1.0

     total cpu time spent up to now is    74311.2 secs

     total energy              =   -5144.21096659 Ry
     estimated scf accuracy    <       0.00000008 Ry

     iteration # 13     ecut=   110.00 Ry     beta= 0.30
     Davidson diagonalization with overlap
     ethr =  3.97E-11,  avg # of iterations =  1.6

     total cpu time spent up to now is    78345.2 secs

     total energy              =   -5144.21096660 Ry
     estimated scf accuracy    <       0.00000016 Ry

     iteration # 14     ecut=   110.00 Ry     beta= 0.30
     Davidson diagonalization with overlap
     ethr =  3.97E-11,  avg # of iterations =  1.0

     total cpu time spent up to now is    81989.4 secs

     total energy              =   -5144.21096661 Ry
     estimated scf accuracy    <       0.00000002 Ry

     iteration # 15     ecut=   110.00 Ry     beta= 0.30
     Davidson diagonalization with overlap
     ethr =  9.68E-12,  avg # of iterations =  1.0

     total cpu time spent up to now is    85246.0 secs

     End of self-consistent calculation

     Number of k-points >= 100: set verbosity='high' to print the bands.

     the Fermi energy is    21.7873 ev

!    total energy              =   -5144.21096660 Ry
     estimated scf accuracy    <          8.5E-09 Ry
     smearing contrib. (-TS)   =       0.00165515 Ry
     internal energy E=F+TS    =   -5144.21262175 Ry

     The total energy is F=E-TS. E is the sum of the following terms:
     one-electron contribution =   -3396.92921924 Ry
     hartree contribution      =    1819.79577593 Ry
     xc contribution           =    -401.06516807 Ry
     ewald contribution        =   -3166.01401037 Ry

     convergence has been achieved in  15 iterations

     Forces acting on atoms (cartesian axes, Ry/au):

     atom    1 type  1   force =     0.00019716    0.00289756    0.00034645
     atom    2 type  1   force =    -0.00019766    0.00285041    0.00024842
     atom    3 type  1   force =     0.00002593   -0.00284577   -0.00034300
     atom    4 type  1   force =     0.00020042   -0.00290717   -0.00026923
     atom    5 type  2   force =    -0.00023135   -0.00405884   -0.00004066
     atom    6 type  2   force =     0.00008247   -0.00408707   -0.00002322
     atom    7 type  2   force =     0.00003598    0.00407762    0.00001558
     atom    8 type  2   force =    -0.00011295    0.00407325    0.00006567

     Total force =     0.010002     Total SCF correction =     0.000335


     Computing stress (Cartesian axis) and pressure

          total   stress  (Ry/bohr**3)                   (kbar)     P=      -27.59
  -0.00014563  -0.00000217  -0.00000194          -21.42       -0.32       -0.29
  -0.00000217  -0.00022623  -0.00001071           -0.32      -33.28       -1.58
  -0.00000194  -0.00001071  -0.00019071           -0.29       -1.58      -28.05


     Writing all to output data dir /home/tenant3/nexus-mat/dft/runs/dft-paper-worker-08/jobs/Pt-Pd-15_Pd4Pt4/tmp/Pt-Pd-15_Pd4Pt4.save/ :
     XML data file, charge density, pseudopotentials, collected wavefunctions

     init_run     :    543.71s CPU   2190.00s WALL (       1 calls)
     electrons    :  19285.13s CPU  83055.55s WALL (       1 calls)
     forces       :    283.98s CPU    854.76s WALL (       1 calls)
     stress       :    938.89s CPU   2829.90s WALL (       1 calls)

     Called by init_run:
     wfcinit      :    537.21s CPU   2160.12s WALL (       1 calls)
     potinit      :      0.55s CPU      2.46s WALL (       1 calls)
     hinit0       :      0.75s CPU      3.10s WALL (       1 calls)

     Called by electrons:
     c_bands      :  17306.55s CPU  74607.97s WALL (      16 calls)
     sum_band     :   1921.40s CPU   8147.60s WALL (      16 calls)
     v_of_rho     :      5.16s CPU     23.94s WALL (      16 calls)
     newd         :     56.15s CPU    295.91s WALL (      16 calls)
     mix_rho      :      0.78s CPU      3.33s WALL (      16 calls)

     Called by c_bands:
     init_us_2    :     51.99s CPU    214.99s WALL (    3780 calls)
     cegterg      :  17090.02s CPU  73698.21s WALL (    1728 calls)

     Called by *egterg:
     cdiaghg      :    130.10s CPU    569.24s WALL (    4575 calls)
     h_psi        :   7419.45s CPU  32229.74s WALL (    4791 calls)
     s_psi        :   2054.65s CPU   8620.32s WALL (    4791 calls)
     g_psi        :      8.38s CPU     35.16s WALL (    2955 calls)

     Called by h_psi:
     h_psi:calbec :   2507.65s CPU  10520.89s WALL (    4791 calls)
     vloc_psi     :   2842.60s CPU  12911.09s WALL (    4791 calls)
                                        0.00s GPU  (    4791 calls)
     add_vuspsi   :   2057.17s CPU   8630.82s WALL (    4791 calls)

     General routines
     calbec       :   4816.80s CPU  18822.08s WALL (    8355 calls)
     fft          :      3.95s CPU     16.24s WALL (     232 calls)
     ffts         :      0.15s CPU      0.63s WALL (      32 calls)
     fftw         :   3075.48s CPU  14055.82s WALL ( 1094474 calls)
     interpolate  :      0.41s CPU      1.73s WALL (      16 calls)


     PWSCF        :      5h50m CPU   1d 0h42m WALL


   This run was terminated on:   2:23:35  22Jul2026            

=------------------------------------------------------------------------------=
   JOB DONE.
=------------------------------------------------------------------------------=
