
     Program PWSCF v.7.5 starts on 20Jul2026 at 18:53: 8 

     This program is part of the open-source Quantum ESPRESSO suite
     for quantum simulation of materials; please cite
         "P. Giannozzi et al., J. Phys.:Condens. Matter 21 395502 (2009);
         "P. Giannozzi et al., J. Phys.:Condens. Matter 29 465901 (2017);
         "P. Giannozzi et al., J. Chem. Phys. 152 154105 (2020);
          URL http://www.quantum-espresso.org", 
     in publications or presentations arising from this work. More details at
     http://www.quantum-espresso.org/quote

     Serial multi-threaded version, running on    1 processor cores
     4592 MiB available memory on the printing compute node when the environment starts

     Reading input from /home/tenant3/nexus-mat/dft/runs/dft-paper-worker-03/jobs/Pt-Pd-Rh-07_Pd4Pt3Rh/input.in

     Current dimensions of program PWSCF are:
     Max number of different atomic species (ntypx) = 10
     Max number of k-points (npk) =  40000
     Max angular momentum in pseudopotentials (lmaxx) =  4
     file Pt.pbe-spfn-rrkjus_psl.1.0.0.UPF: wavefunction(s)  5P renormalized


     G-vector sticks info
     --------------------
     sticks:   dense  smooth     PW     G-vecs:    dense   smooth      PW
     Sum        3347    1685    479               368583   130413   19677

     Using Slab Decomposition



     bravais-lattice index     =            0
     lattice parameter (alat)  =       5.2527  a.u.
     unit-cell volume          =     836.2251 (a.u.)^3
     number of atoms/cell      =            8
     number of atomic types    =            3
     number of electrons       =       185.00
     number of Kohn-Sham states=          112
     kinetic-energy cutoff     =     110.0000  Ry
     charge density cutoff     =     880.0000  Ry
     scf convergence threshold =      1.0E-08
     mixing beta               =       0.3000
     number of iterations used =            8  plain     mixing
     Exchange-correlation= PBE
                           (   1   4   3   4   0   0   0)

     celldm(1)=   5.252651  celldm(2)=   0.000000  celldm(3)=   0.000000
     celldm(4)=   0.000000  celldm(5)=   0.000000  celldm(6)=   0.000000

     crystal axes: (cart. coord. in units of alat)
               a(1) = (   0.989543   0.000000  -0.144239 )  
               a(2) = (  -0.061425   1.681508  -0.429208 )  
               a(3) = (   0.000000   0.000000   3.467799 )  

     reciprocal axes: (cart. coord. in units 2 pi/alat)
               b(1) = (  1.010568  0.036916 -0.000000 )  
               b(2) = ( -0.000000  0.594704  0.000000 )  
               b(3) = (  0.042033  0.075142  0.288367 )  


     PseudoPot. # 1 for Pd read from file:
     /home/tenant3/nexus-mat/dft/pseudo/SSSP_1.3.0_PBE_precision/Pd_ONCV_PBE-1.0.oncvpsp.upf
     MD5 check sum: eb77f42b51d86fb18e25f68156a31cf1
     Pseudo is Norm-conserving, Zval = 18.0
     Generated using ONCVPSP code by D. R. Hamann
     Using radial grid of 1410 points,  6 beta functions with: 
                l(1) =   0
                l(2) =   0
                l(3) =   1
                l(4) =   1
                l(5) =   2
                l(6) =   2

     PseudoPot. # 2 for Pt read from file:
     /home/tenant3/nexus-mat/dft/pseudo/SSSP_1.3.0_PBE_precision/Pt.pbe-spfn-rrkjus_psl.1.0.0.UPF
     MD5 check sum: ed006ba81d2b6b3b17616bb61ae12f04
     Pseudo is Ultrasoft + core correction, Zval = 32.0
     Generated using "atomic" code by A. Dal Corso  v.5.1
     Using radial grid of 1277 points,  8 beta functions with: 
                l(1) =   0
                l(2) =   0
                l(3) =   1
                l(4) =   1
                l(5) =   2
                l(6) =   2
                l(7) =   3
                l(8) =   3
     Q(r) pseudized with 0 coefficients 


     PseudoPot. # 3 for Rh read from file:
     /home/tenant3/nexus-mat/dft/pseudo/SSSP_1.3.0_PBE_precision/Rh_ONCV_PBE-1.0.oncvpsp.upf
     MD5 check sum: ba07c69523b14cacd10683cd4c4284c1
     Pseudo is Norm-conserving, Zval = 17.0
     Generated using ONCVPSP code by D. R. Hamann
     Using radial grid of 1442 points,  6 beta functions with: 
                l(1) =   0
                l(2) =   0
                l(3) =   1
                l(4) =   1
                l(5) =   2
                l(6) =   2

     atomic species   valence    mass     pseudopotential
     Pd               18.00   106.42000     Pd( 1.00)
     Pt               32.00   195.08400     Pt( 1.00)
     Rh               17.00   102.90549     Rh( 1.00)

     No symmetry found



   Cartesian axes

     site n.     atom                  positions (alat units)
         1        Pd     tau(   1) = (   0.8387924   1.2062702   0.9526762  )
         2        Pd     tau(   2) = (   0.6303782   0.2226007   2.9831642  )
         3        Pd     tau(   3) = (   0.1054401   1.0679065   2.8451884  )
         4        Pd     tau(   4) = (   0.3742806   0.3613189   1.2362131  )
         5        Pt     tau(   5) = (   0.2400537   0.7139762   0.3061638  )
         6        Pt     tau(   6) = (   0.0079145   0.2939989   2.1828802  )
         7        Pt     tau(   7) = (   0.4721045   1.1340670   1.8979504  )
         8        Rh     tau(   8) = (   0.7042072   1.5551560   0.0198969  )

     number of k points=    90  Marzari-Vanderbilt smearing, width (Ry)=  0.0200
                       cart. coord. in units 2pi/alat
        k(    1) = (   0.0505284   0.0514045   0.0000000), wk =   0.0222222
        k(    2) = (   0.0645395   0.0764517   0.0961224), wk =   0.0222222
        k(    3) = (   0.0365173   0.0263572  -0.0961224), wk =   0.0222222
        k(    4) = (   0.0505284   0.1505218   0.0000000), wk =   0.0222222
        k(    5) = (   0.0645395   0.1755691   0.0961224), wk =   0.0222222
        k(    6) = (   0.0365173   0.1254746  -0.0961224), wk =   0.0222222
        k(    7) = (   0.0505284   0.2496392   0.0000000), wk =   0.0222222
        k(    8) = (   0.0645395   0.2746864   0.0961224), wk =   0.0222222
        k(    9) = (   0.0365173   0.2245919  -0.0961224), wk =   0.0222222
        k(   10) = (   0.0505284  -0.2459476   0.0000000), wk =   0.0222222
        k(   11) = (   0.0645395  -0.2209003   0.0961224), wk =   0.0222222
        k(   12) = (   0.0365173  -0.2709948  -0.0961224), wk =   0.0222222
        k(   13) = (   0.0505284  -0.1468302   0.0000000), wk =   0.0222222
        k(   14) = (   0.0645395  -0.1217830   0.0961224), wk =   0.0222222
        k(   15) = (   0.0365173  -0.1718775  -0.0961224), wk =   0.0222222
        k(   16) = (   0.0505284  -0.0477129   0.0000000), wk =   0.0222222
        k(   17) = (   0.0645395  -0.0226656   0.0961224), wk =   0.0222222
        k(   18) = (   0.0365173  -0.0727601  -0.0961224), wk =   0.0222222
        k(   19) = (   0.1515851   0.0550960   0.0000000), wk =   0.0222222
        k(   20) = (   0.1655963   0.0801433   0.0961224), wk =   0.0222222
        k(   21) = (   0.1375740   0.0300488  -0.0961224), wk =   0.0222222
        k(   22) = (   0.1515851   0.1542134   0.0000000), wk =   0.0222222
        k(   23) = (   0.1655963   0.1792606   0.0961224), wk =   0.0222222
        k(   24) = (   0.1375740   0.1291661  -0.0961224), wk =   0.0222222
        k(   25) = (   0.1515851   0.2533307   0.0000000), wk =   0.0222222
        k(   26) = (   0.1655963   0.2783780   0.0961224), wk =   0.0222222
        k(   27) = (   0.1375740   0.2282835  -0.0961224), wk =   0.0222222
        k(   28) = (   0.1515851  -0.2422560   0.0000000), wk =   0.0222222
        k(   29) = (   0.1655963  -0.2172088   0.0961224), wk =   0.0222222
        k(   30) = (   0.1375740  -0.2673033  -0.0961224), wk =   0.0222222
        k(   31) = (   0.1515851  -0.1431387   0.0000000), wk =   0.0222222
        k(   32) = (   0.1655963  -0.1180914   0.0961224), wk =   0.0222222
        k(   33) = (   0.1375740  -0.1681859  -0.0961224), wk =   0.0222222
        k(   34) = (   0.1515851  -0.0440213   0.0000000), wk =   0.0222222
        k(   35) = (   0.1655963  -0.0189741   0.0961224), wk =   0.0222222
        k(   36) = (   0.1375740  -0.0690686  -0.0961224), wk =   0.0222222
        k(   37) = (   0.2526419   0.0587876   0.0000000), wk =   0.0222222
        k(   38) = (   0.2666530   0.0838349   0.0961224), wk =   0.0222222
        k(   39) = (   0.2386308   0.0337404  -0.0961224), wk =   0.0222222
        k(   40) = (   0.2526419   0.1579050   0.0000000), wk =   0.0222222
        k(   41) = (   0.2666530   0.1829522   0.0961224), wk =   0.0222222
        k(   42) = (   0.2386308   0.1328577  -0.0961224), wk =   0.0222222
        k(   43) = (   0.2526419   0.2570223   0.0000000), wk =   0.0222222
        k(   44) = (   0.2666530   0.2820696   0.0961224), wk =   0.0222222
        k(   45) = (   0.2386308   0.2319751  -0.0961224), wk =   0.0222222
        k(   46) = (   0.2526419  -0.2385644   0.0000000), wk =   0.0222222
        k(   47) = (   0.2666530  -0.2135172   0.0961224), wk =   0.0222222
        k(   48) = (   0.2386308  -0.2636117  -0.0961224), wk =   0.0222222
        k(   49) = (   0.2526419  -0.1394471   0.0000000), wk =   0.0222222
        k(   50) = (   0.2666530  -0.1143998   0.0961224), wk =   0.0222222
        k(   51) = (   0.2386308  -0.1644943  -0.0961224), wk =   0.0222222
        k(   52) = (   0.2526419  -0.0403297   0.0000000), wk =   0.0222222
        k(   53) = (   0.2666530  -0.0152825   0.0961224), wk =   0.0222222
        k(   54) = (   0.2386308  -0.0653770  -0.0961224), wk =   0.0222222
        k(   55) = (   0.3536987   0.0624792   0.0000000), wk =   0.0222222
        k(   56) = (   0.3677098   0.0875264   0.0961224), wk =   0.0222222
        k(   57) = (   0.3396875   0.0374319  -0.0961224), wk =   0.0222222
        k(   58) = (   0.3536987   0.1615965   0.0000000), wk =   0.0222222
        k(   59) = (   0.3677098   0.1866438   0.0961224), wk =   0.0222222
        k(   60) = (   0.3396875   0.1365493  -0.0961224), wk =   0.0222222
        k(   61) = (   0.3536987   0.2607139   0.0000000), wk =   0.0222222
        k(   62) = (   0.3677098   0.2857611   0.0961224), wk =   0.0222222
        k(   63) = (   0.3396875   0.2356666  -0.0961224), wk =   0.0222222
        k(   64) = (   0.3536987  -0.2348729   0.0000000), wk =   0.0222222
        k(   65) = (   0.3677098  -0.2098256   0.0961224), wk =   0.0222222
        k(   66) = (   0.3396875  -0.2599201  -0.0961224), wk =   0.0222222
        k(   67) = (   0.3536987  -0.1357555   0.0000000), wk =   0.0222222
        k(   68) = (   0.3677098  -0.1107083   0.0961224), wk =   0.0222222
        k(   69) = (   0.3396875  -0.1608028  -0.0961224), wk =   0.0222222
        k(   70) = (   0.3536987  -0.0366382   0.0000000), wk =   0.0222222
        k(   71) = (   0.3677098  -0.0115909   0.0961224), wk =   0.0222222
        k(   72) = (   0.3396875  -0.0616854  -0.0961224), wk =   0.0222222
        k(   73) = (   0.4547554   0.0661708   0.0000000), wk =   0.0222222
        k(   74) = (   0.4687666   0.0912180   0.0961224), wk =   0.0222222
        k(   75) = (   0.4407443   0.0411235  -0.0961224), wk =   0.0222222
        k(   76) = (   0.4547554   0.1652881   0.0000000), wk =   0.0222222
        k(   77) = (   0.4687666   0.1903354   0.0961224), wk =   0.0222222
        k(   78) = (   0.4407443   0.1402409  -0.0961224), wk =   0.0222222
        k(   79) = (   0.4547554   0.2644055   0.0000000), wk =   0.0222222
        k(   80) = (   0.4687666   0.2894527   0.0961224), wk =   0.0222222
        k(   81) = (   0.4407443   0.2393582  -0.0961224), wk =   0.0222222
        k(   82) = (   0.4547554  -0.2311813   0.0000000), wk =   0.0222222
        k(   83) = (   0.4687666  -0.2061340   0.0961224), wk =   0.0222222
        k(   84) = (   0.4407443  -0.2562285  -0.0961224), wk =   0.0222222
        k(   85) = (   0.4547554  -0.1320639   0.0000000), wk =   0.0222222
        k(   86) = (   0.4687666  -0.1070167   0.0961224), wk =   0.0222222
        k(   87) = (   0.4407443  -0.1571112  -0.0961224), wk =   0.0222222
        k(   88) = (   0.4547554  -0.0329466   0.0000000), wk =   0.0222222
        k(   89) = (   0.4687666  -0.0078993   0.0961224), wk =   0.0222222
        k(   90) = (   0.4407443  -0.0579938  -0.0961224), wk =   0.0222222

     Dense  grid:   368583 G-vectors     FFT dimensions: (  50,  90, 180)

     Smooth grid:   130413 G-vectors     FFT dimensions: (  36,  64, 125)

     Estimated max dynamical RAM per process >       5.96 GB

     Initial potential from superposition of free atoms

     starting charge     184.9977, renormalised to     185.0000
     Starting wfcs are  101 randomized atomic wfcs +   11 random wfcs

     total cpu time spent up to now is      881.5 secs

     Self-consistent Calculation

     iteration #  1     ecut=   110.00 Ry     beta= 0.30
     Davidson diagonalization with overlap
     ethr =  1.00E-02,  avg # of iterations =  3.1

     total cpu time spent up to now is     4305.3 secs

     total energy              =   -4326.39002194 Ry
     estimated scf accuracy    <       4.38117639 Ry

     iteration #  2     ecut=   110.00 Ry     beta= 0.30
     Davidson diagonalization with overlap
     ethr =  2.37E-03,  avg # of iterations =  4.1

     total cpu time spent up to now is     7798.6 secs

     total energy              =   -4325.75697976 Ry
     estimated scf accuracy    <      56.11017317 Ry

     iteration #  3     ecut=   110.00 Ry     beta= 0.30
     Davidson diagonalization with overlap
     ethr =  2.37E-03,  avg # of iterations =  3.0

     total cpu time spent up to now is    11006.8 secs

     total energy              =   -4327.93355751 Ry
     estimated scf accuracy    <       7.16663731 Ry

     iteration #  4     ecut=   110.00 Ry     beta= 0.30
     Davidson diagonalization with overlap
     ethr =  2.37E-03,  avg # of iterations =  1.2

     total cpu time spent up to now is    13588.6 secs

     total energy              =   -4328.29359625 Ry
     estimated scf accuracy    <       1.13441558 Ry

     iteration #  5     ecut=   110.00 Ry     beta= 0.30
     Davidson diagonalization with overlap
     ethr =  6.13E-04,  avg # of iterations =  1.4

     total cpu time spent up to now is    16189.6 secs

     total energy              =   -4328.30155527 Ry
     estimated scf accuracy    <       0.23841729 Ry

     iteration #  6     ecut=   110.00 Ry     beta= 0.30
     Davidson diagonalization with overlap
     ethr =  1.29E-04,  avg # of iterations =  2.5

     total cpu time spent up to now is    18666.2 secs

     total energy              =   -4328.29631009 Ry
     estimated scf accuracy    <       0.31952697 Ry

     iteration #  7     ecut=   110.00 Ry     beta= 0.30
     Davidson diagonalization with overlap
     ethr =  1.29E-04,  avg # of iterations =  1.5

     total cpu time spent up to now is    21217.2 secs

     total energy              =   -4328.29511830 Ry
     estimated scf accuracy    <       0.11026536 Ry

     iteration #  8     ecut=   110.00 Ry     beta= 0.30
     Davidson diagonalization with overlap
     ethr =  5.96E-05,  avg # of iterations =  2.3

     total cpu time spent up to now is    25260.7 secs

     total energy              =   -4328.29297513 Ry
     estimated scf accuracy    <       0.05764853 Ry

     iteration #  9     ecut=   110.00 Ry     beta= 0.30
     Davidson diagonalization with overlap
     c_bands:  1 eigenvalues not converged
     ethr =  3.12E-05,  avg # of iterations =  3.2

     total cpu time spent up to now is    30976.4 secs

     total energy              =   -4328.29567954 Ry
     estimated scf accuracy    <       0.00745812 Ry

     iteration # 10     ecut=   110.00 Ry     beta= 0.30
     Davidson diagonalization with overlap
     c_bands:  1 eigenvalues not converged
     ethr =  4.03E-06,  avg # of iterations =  5.6

     total cpu time spent up to now is    36101.6 secs

     total energy              =   -4328.29438368 Ry
     estimated scf accuracy    <       0.02649877 Ry

     iteration # 11     ecut=   110.00 Ry     beta= 0.30
     Davidson diagonalization with overlap
     ethr =  4.03E-06,  avg # of iterations =  1.4

     total cpu time spent up to now is    40482.3 secs

     total energy              =   -4328.29542746 Ry
     estimated scf accuracy    <       0.00057321 Ry

     iteration # 12     ecut=   110.00 Ry     beta= 0.30
     Davidson diagonalization with overlap
     ethr =  3.10E-07,  avg # of iterations =  1.2

     total cpu time spent up to now is    44324.9 secs

     total energy              =   -4328.29545234 Ry
     estimated scf accuracy    <       0.00009726 Ry

     iteration # 13     ecut=   110.00 Ry     beta= 0.30
     Davidson diagonalization with overlap
     ethr =  5.26E-08,  avg # of iterations =  1.0

     total cpu time spent up to now is    48057.9 secs

     total energy              =   -4328.29545787 Ry
     estimated scf accuracy    <       0.00000712 Ry

     iteration # 14     ecut=   110.00 Ry     beta= 0.30
     Davidson diagonalization with overlap
     ethr =  3.85E-09,  avg # of iterations =  1.5

     total cpu time spent up to now is    52215.8 secs

     total energy              =   -4328.29545848 Ry
     estimated scf accuracy    <       0.00000490 Ry

     iteration # 15     ecut=   110.00 Ry     beta= 0.30
     Davidson diagonalization with overlap
     ethr =  2.65E-09,  avg # of iterations =  1.1

     total cpu time spent up to now is    56112.6 secs

     total energy              =   -4328.29545846 Ry
     estimated scf accuracy    <       0.00000275 Ry

     iteration # 16     ecut=   110.00 Ry     beta= 0.30
     Davidson diagonalization with overlap
     ethr =  1.49E-09,  avg # of iterations =  1.1

     total cpu time spent up to now is    59993.1 secs

     total energy              =   -4328.29545858 Ry
     estimated scf accuracy    <       0.00000955 Ry

     iteration # 17     ecut=   110.00 Ry     beta= 0.30
     Davidson diagonalization with overlap
     ethr =  1.49E-09,  avg # of iterations =  1.0

     total cpu time spent up to now is    63851.6 secs

     total energy              =   -4328.29545890 Ry
     estimated scf accuracy    <       0.00000052 Ry

     iteration # 18     ecut=   110.00 Ry     beta= 0.30
     Davidson diagonalization with overlap
     ethr =  2.79E-10,  avg # of iterations =  1.0

     total cpu time spent up to now is    67695.8 secs

     total energy              =   -4328.29545880 Ry
     estimated scf accuracy    <       0.00000613 Ry

     iteration # 19     ecut=   110.00 Ry     beta= 0.30
     Davidson diagonalization with overlap
     ethr =  2.79E-10,  avg # of iterations =  1.0

     total cpu time spent up to now is    71540.6 secs

     total energy              =   -4328.29545895 Ry
     estimated scf accuracy    <       0.00000005 Ry

     iteration # 20     ecut=   110.00 Ry     beta= 0.30
     Davidson diagonalization with overlap
     ethr =  2.67E-11,  avg # of iterations =  2.0

     total cpu time spent up to now is    76067.4 secs

     total energy              =   -4328.29545895 Ry
     estimated scf accuracy    <       0.00000018 Ry

     iteration # 21     ecut=   110.00 Ry     beta= 0.30
     Davidson diagonalization with overlap
     ethr =  2.67E-11,  avg # of iterations =  1.0

     total cpu time spent up to now is    79907.9 secs

     total energy              =   -4328.29545896 Ry
     estimated scf accuracy    <       0.00000004 Ry

     iteration # 22     ecut=   110.00 Ry     beta= 0.30
     Davidson diagonalization with overlap
     ethr =  2.21E-11,  avg # of iterations =  1.0

     total cpu time spent up to now is    83608.9 secs

     total energy              =   -4328.29545896 Ry
     estimated scf accuracy    <       0.00000001 Ry

     iteration # 23     ecut=   110.00 Ry     beta= 0.30
     Davidson diagonalization with overlap
     ethr =  6.27E-12,  avg # of iterations =  1.0

     total cpu time spent up to now is    86866.0 secs

     total energy              =   -4328.29545897 Ry
     estimated scf accuracy    <       0.00000001 Ry

     iteration # 24     ecut=   110.00 Ry     beta= 0.30
     Davidson diagonalization with overlap
     ethr =  6.27E-12,  avg # of iterations =  1.0

     total cpu time spent up to now is    89715.2 secs

     End of self-consistent calculation

          k = 0.0505 0.0514 0.0000 ( 16296 PWs)   bands (ev):

   -76.9089 -76.8361 -76.8164 -62.7424 -62.7420 -62.7039 -62.7031 -56.8788
   -45.3418 -45.3386 -45.2950 -45.2877 -45.2833 -45.2755 -45.2748 -45.2573
   -45.2554 -45.2553 -45.2524 -45.1989 -45.1982 -45.1975 -45.1972 -45.1860
   -45.1854 -45.1849 -45.1844 -45.1840 -45.1836 -31.1720 -31.0752 -30.9404
   -30.9377 -30.9169 -30.8609 -30.8485 -30.8342 -30.8163 -28.5418 -28.5395
   -28.5122 -28.5058 -28.4645 -28.4623 -28.3467 -28.3464 -28.2814 -28.2812
   -28.2743 -28.2738 -24.7487 -24.6759 -24.6126  13.2607  14.5285  15.5336
    15.8684  16.1029  16.1398  16.2894  16.4552  16.6435  16.7096  17.9893
    18.0346  18.1221  18.1654  18.2899  18.3544  18.5012  18.5676  18.7042
    18.7798  18.9234  18.9282  18.9593  19.0122  19.0316  19.7426  19.7955
    19.8583  19.8922  20.1252  20.2940  20.3078  20.3807  20.6596  20.8147
    20.9644  21.0177  21.2104  21.3714  21.3951  21.4687  21.7194  21.8916
    22.7473  23.2741  23.3663  25.3155  25.7278  27.7175  28.1929  29.1625
    30.9332  31.0676  34.1400  34.4192  34.7084  34.9445  35.3214  35.8175

          k = 0.0645 0.0765 0.0961 ( 16305 PWs)   bands (ev):

   -76.9089 -76.8361 -76.8164 -62.7424 -62.7420 -62.7039 -62.7031 -56.8788
   -45.3418 -45.3386 -45.2950 -45.2877 -45.2833 -45.2755 -45.2748 -45.2573
   -45.2554 -45.2553 -45.2524 -45.1989 -45.1982 -45.1975 -45.1972 -45.1860
   -45.1854 -45.1849 -45.1844 -45.1840 -45.1836 -31.1720 -31.0752 -30.9402
   -30.9377 -30.9169 -30.8611 -30.8485 -30.8342 -30.8163 -28.5412 -28.5404
   -28.5108 -28.5066 -28.4652 -28.4619 -28.3467 -28.3464 -28.2814 -28.2812
   -28.2743 -28.2738 -24.7487 -24.6759 -24.6126  13.4289  14.2080  15.4798
    15.8536  15.9459  16.0590  16.2214  16.6176  16.9902  17.1357  17.7076
    17.9402  18.1089  18.1586  18.3848  18.4643  18.5701  18.6228  18.7356
    18.7552  18.8071  18.8464  18.8950  18.9341  19.2208  19.4080  19.6142
    19.9785  20.0101  20.0299  20.1590  20.2231  20.2679  20.9454  21.0857
    21.2370  21.3196  21.3799  21.4032  21.5196  21.5932  21.7173  21.8321
    21.8871  22.8512  23.3440  24.4261  26.3215  28.2909  29.1680  29.8698
    30.8072  31.2333  31.4784  33.2951  34.1153  35.0944  36.5753  36.6481

          k = 0.0365 0.0264-0.0961 ( 16309 PWs)   bands (ev):

   -76.9089 -76.8361 -76.8164 -62.7424 -62.7420 -62.7039 -62.7031 -56.8788
   -45.3418 -45.3386 -45.2950 -45.2877 -45.2833 -45.2755 -45.2748 -45.2573
   -45.2554 -45.2553 -45.2524 -45.1989 -45.1982 -45.1975 -45.1972 -45.1860
   -45.1854 -45.1849 -45.1844 -45.1840 -45.1836 -31.1720 -31.0752 -30.9403
   -30.9377 -30.9169 -30.8610 -30.8485 -30.8342 -30.8163 -28.5417 -28.5398
   -28.5108 -28.5069 -28.4649 -28.4620 -28.3467 -28.3464 -28.2814 -28.2812
   -28.2743 -28.2738 -24.7487 -24.6759 -24.6126  13.3495  14.3468  15.4863
    15.8782  16.0007  16.0961  16.2369  16.5360  16.8616  16.9336  17.8170
    18.0106  18.0999  18.1919  18.3750  18.4358  18.5907  18.6125  18.7011
    18.7416  18.8596  18.9044  18.9655  18.9928  19.1374  19.3459  19.4055
    19.9141  19.9957  20.2152  20.2691  20.3702  20.5049  20.7225  20.9580
    21.0346  21.2073  21.3337  21.3593  21.4418  21.4828  21.7258  21.8718
    22.2605  22.8821  23.6321  24.5905  26.1881  28.2208  28.6185  29.3296
    30.5622  31.6617  32.6386  33.4302  34.2774  35.1353  36.0122  36.7152

          k = 0.0505 0.1505 0.0000 ( 16294 PWs)   bands (ev):

   -76.9089 -76.8335 -76.8190 -62.7397 -62.7392 -62.7067 -62.7058 -56.8789
   -45.3418 -45.3386 -45.2950 -45.2877 -45.2833 -45.2755 -45.2748 -45.2571
   -45.2555 -45.2551 -45.2527 -45.1988 -45.1982 -45.1976 -45.1972 -45.1859
   -45.1854 -45.1849 -45.1845 -45.1840 -45.1836 -31.1297 -31.0735 -30.9402
   -30.9377 -30.9057 -30.8942 -30.8551 -30.8435 -30.8222 -28.5151 -28.5128
   -28.5009 -28.4983 -28.4674 -28.4642 -28.3387 -28.3385 -28.3157 -28.3153
   -28.2829 -28.2820 -24.7518 -24.6759 -24.6127  13.7453  14.8417  15.6005
    16.0598  16.2700  16.3920  16.5374  16.7317  16.7917  16.9005  17.7782
    17.9433  17.9919  18.0229  18.1331  18.4442  18.4755  18.6750  18.7947
    18.8282  18.9286  18.9709  19.0504  19.1247  19.2268  19.2967  19.3218
    19.4915  19.7220  19.7664  19.8383  20.2826  20.3493  20.5005  20.6083
    20.8368  20.9152  21.1269  21.1309  21.2060  21.4057  21.4332  21.5788
    21.8038  21.9663  23.9425  24.5282  26.5086  28.1110  29.4785  30.1080
    31.8133  32.7958  33.9278  34.4749  34.7916  35.3310  36.2898  36.5392

          k = 0.0645 0.1756 0.0961 ( 16281 PWs)   bands (ev):

   -76.9089 -76.8334 -76.8190 -62.7397 -62.7392 -62.7067 -62.7058 -56.8789
   -45.3418 -45.3386 -45.2950 -45.2877 -45.2833 -45.2755 -45.2748 -45.2571
   -45.2555 -45.2551 -45.2527 -45.1988 -45.1982 -45.1976 -45.1972 -45.1859
   -45.1854 -45.1849 -45.1845 -45.1840 -45.1836 -31.1297 -31.0735 -30.9401
   -30.9377 -30.9057 -30.8942 -30.8552 -30.8435 -30.8222 -28.5164 -28.5113
   -28.5009 -28.4982 -28.4679 -28.4641 -28.3387 -28.3385 -28.3156 -28.3154
   -28.2829 -28.2820 -24.7518 -24.6759 -24.6127  13.9153  14.5373  15.5567
    16.0395  16.2466  16.2822  16.4915  16.8475  16.9791  17.3120  17.6146
    17.8434  18.0031  18.1806  18.3640  18.3914  18.4756  18.5976  18.6858
    18.7308  18.7325  18.9322  18.9959  19.0328  19.0759  19.1996  19.2356
    19.7781  19.8504  19.9969  20.0613  20.1164  20.1943  20.2391  20.4140
    20.9867  21.1071  21.1568  21.2668  21.2833  21.4574  21.6202  21.8126
    22.3408  22.4604  22.6176  22.9892  28.4391  29.0151  29.3978  30.5558
    30.8530  31.6422  31.9131  34.6403  35.7652  36.1285  36.8472  37.5385

          k = 0.0365 0.1255-0.0961 ( 16301 PWs)   bands (ev):

   -76.9089 -76.8335 -76.8190 -62.7397 -62.7392 -62.7067 -62.7058 -56.8789
   -45.3418 -45.3386 -45.2950 -45.2877 -45.2833 -45.2755 -45.2748 -45.2571
   -45.2555 -45.2551 -45.2527 -45.1988 -45.1982 -45.1976 -45.1972 -45.1859
   -45.1854 -45.1849 -45.1845 -45.1840 -45.1836 -31.1297 -31.0735 -30.9402
   -30.9377 -30.9057 -30.8942 -30.8551 -30.8435 -30.8222 -28.5153 -28.5123
   -28.5014 -28.4981 -28.4680 -28.4636 -28.3387 -28.3385 -28.3156 -28.3154
   -28.2829 -28.2820 -24.7518 -24.6759 -24.6127  13.7610  14.8141  15.5523
    16.1235  16.3372  16.3583  16.5030  16.6021  16.8678  16.9763  17.7969
    17.8723  17.9821  18.0398  18.2174  18.4079  18.5396  18.6680  18.7601
    18.8245  18.9204  18.9610  19.0150  19.1408  19.2202  19.2599  19.3106
    19.4499  19.7387  19.7908  19.8954  20.2500  20.3563  20.4935  20.5407
    20.8680  20.9511  21.0131  21.1673  21.2953  21.4142  21.4831  21.5763
    21.7793  22.0660  23.7981  24.4088  26.5678  28.3008  29.4157  30.2554
    31.8804  32.4830  33.6418  34.6096  34.8144  35.3087  36.4323  36.7444

          k = 0.0505 0.2496 0.0000 ( 16288 PWs)   bands (ev):

   -76.9089 -76.8289 -76.8236 -62.7365 -62.7358 -62.7101 -62.7091 -56.8789
   -45.3418 -45.3386 -45.2950 -45.2877 -45.2833 -45.2755 -45.2748 -45.2568
   -45.2557 -45.2545 -45.2533 -45.1988 -45.1981 -45.1976 -45.1972 -45.1857
   -45.1853 -45.1848 -45.1846 -45.1841 -45.1837 -31.0719 -31.0559 -30.9697
   -30.9400 -30.9376 -30.8861 -30.8632 -30.8446 -30.8326 -28.5088 -28.5029
   -28.4718 -28.4686 -28.4459 -28.4439 -28.3761 -28.3750 -28.3255 -28.3252
   -28.2955 -28.2942 -24.7550 -24.6759 -24.6129  14.5756  15.1920  15.4476
    16.2552  16.5453  16.7498  16.7876  16.9824  17.1078  17.3726  17.5271
    17.6389  17.7584  17.8007  18.0780  18.2791  18.3299  18.4510  18.5813
    18.6953  18.8730  18.9307  19.0676  19.1574  19.2381  19.3337  19.3908
    19.4292  19.5465  19.6697  19.8059  19.9697  20.0860  20.1373  20.3262
    20.4830  20.6321  20.7340  20.7922  20.9513  21.0069  21.2218  21.4569
    21.5721  22.2916  23.1710  25.0393  26.0717  28.9104  29.7597  32.4363
    32.8986  33.5634  34.4424  35.3408  35.3962  36.2407  36.3683  37.2336

          k = 0.0645 0.2747 0.0961 ( 16277 PWs)   bands (ev):

   -76.9089 -76.8289 -76.8236 -62.7365 -62.7358 -62.7101 -62.7091 -56.8789
   -45.3418 -45.3386 -45.2950 -45.2877 -45.2833 -45.2755 -45.2748 -45.2568
   -45.2557 -45.2545 -45.2533 -45.1988 -45.1981 -45.1976 -45.1972 -45.1857
   -45.1853 -45.1848 -45.1846 -45.1841 -45.1837 -31.0719 -31.0559 -30.9697
   -30.9400 -30.9376 -30.8861 -30.8632 -30.8446 -30.8326 -28.5081 -28.5036
   -28.4730 -28.4673 -28.4460 -28.4440 -28.3758 -28.3754 -28.3255 -28.3252
   -28.2955 -28.2942 -24.7550 -24.6759 -24.6129  14.6835  15.0392  15.4249
    16.3538  16.4942  16.7050  16.7427  16.9172  17.2531  17.5271  17.5987
    17.6649  17.7742  17.7847  17.9545  18.0264  18.3854  18.5705  18.6117
    18.7376  18.8361  18.8841  18.9937  19.1535  19.2135  19.2531  19.3297
    19.5801  19.5901  19.7205  19.8748  19.9819  20.0684  20.1121  20.2618
    20.3826  20.5060  20.5886  20.9348  21.0764  21.1604  21.3049  21.4381
    21.7534  22.3315  23.2436  23.8392  27.2635  28.4704  30.5854  31.6897
    32.2003  33.8699  34.2677  35.5507  35.8134  36.0464  36.1712  36.9739

          k = 0.0365 0.2246-0.0961 ( 16285 PWs)   bands (ev):

   -76.9089 -76.8289 -76.8235 -62.7365 -62.7358 -62.7101 -62.7091 -56.8789
   -45.3418 -45.3386 -45.2950 -45.2877 -45.2833 -45.2755 -45.2748 -45.2568
   -45.2557 -45.2545 -45.2533 -45.1988 -45.1981 -45.1976 -45.1972 -45.1857
   -45.1853 -45.1848 -45.1846 -45.1841 -45.1837 -31.0719 -31.0559 -30.9697
   -30.9401 -30.9376 -30.8861 -30.8632 -30.8445 -30.8326 -28.5070 -28.5049
   -28.4726 -28.4678 -28.4450 -28.4447 -28.3761 -28.3751 -28.3255 -28.3252
   -28.2955 -28.2942 -24.7550 -24.6759 -24.6129  14.5202  15.3080  15.4048
    16.3629  16.5770  16.6887  16.7729  17.0033  17.0360  17.2770  17.4299
    17.6776  17.7619  17.9656  18.0220  18.0843  18.4401  18.5503  18.6451
    18.7310  18.8100  18.9897  19.0869  19.2008  19.2457  19.2890  19.3598
    19.3994  19.4463  19.6921  19.7847  19.8638  20.1588  20.2048  20.3935
    20.4739  20.5718  20.6802  20.8735  20.9627  21.0080  21.2321  21.3963
    21.5954  21.8812  23.9924  25.0569  25.6633  28.1169  30.9266  31.9947
    32.9443  33.5469  34.7581  35.2240  35.7702  36.3366  36.5387  36.7959

          k = 0.0505-0.2459 0.0000 ( 16290 PWs)   bands (ev):

   -76.9089 -76.8289 -76.8236 -62.7365 -62.7358 -62.7101 -62.7091 -56.8789
   -45.3418 -45.3386 -45.2950 -45.2877 -45.2833 -45.2755 -45.2748 -45.2568
   -45.2557 -45.2545 -45.2533 -45.1988 -45.1982 -45.1976 -45.1972 -45.1857
   -45.1853 -45.1848 -45.1847 -45.1841 -45.1837 -31.0719 -31.0558 -30.9696
   -30.9401 -30.9376 -30.8860 -30.8635 -30.8445 -30.8326 -28.5087 -28.5031
   -28.4718 -28.4687 -28.4455 -28.4437 -28.3764 -28.3753 -28.3255 -28.3252
   -28.2954 -28.2942 -24.7550 -24.6759 -24.6129  14.5518  15.2353  15.4414
    16.2659  16.5546  16.7617  16.7794  16.9907  17.0804  17.3164  17.5029
    17.6458  17.7648  17.8396  18.0655  18.2570  18.3795  18.4691  18.5650
    18.7024  18.8602  18.9501  19.0613  19.1975  19.2599  19.3220  19.3819
    19.4285  19.5122  19.6343  19.8230  19.9445  20.0889  20.1567  20.3581
    20.4644  20.6132  20.7779  20.8260  20.9206  20.9552  21.2361  21.4549
    21.5632  22.1040  23.4286  25.3148  25.7413  28.5593  30.1258  32.5169
    32.7083  33.9261  34.1975  35.3534  35.5322  36.3334  36.4307  37.0696

          k = 0.0645-0.2209 0.0961 ( 16279 PWs)   bands (ev):

   -76.9089 -76.8289 -76.8236 -62.7365 -62.7358 -62.7101 -62.7091 -56.8789
   -45.3418 -45.3386 -45.2950 -45.2877 -45.2833 -45.2755 -45.2748 -45.2568
   -45.2557 -45.2545 -45.2533 -45.1988 -45.1982 -45.1976 -45.1972 -45.1857
   -45.1853 -45.1848 -45.1847 -45.1841 -45.1837 -31.0719 -31.0558 -30.9696
   -30.9401 -30.9376 -30.8860 -30.8635 -30.8445 -30.8326 -28.5067 -28.5051
   -28.4728 -28.4676 -28.4449 -28.4443 -28.3763 -28.3754 -28.3255 -28.3252
   -28.2954 -28.2942 -24.7550 -24.6759 -24.6129  14.5353  15.2760  15.4090
    16.3692  16.5797  16.6604  16.7770  16.9740  17.0844  17.3219  17.4300
    17.6712  17.7596  17.9716  17.9976  18.0831  18.4169  18.5632  18.6516
    18.7517  18.8030  18.9893  19.0596  19.1774  19.2159  19.3134  19.3711
    19.4114  19.4640  19.6905  19.7749  19.8769  20.1271  20.2113  20.3965
    20.4942  20.5910  20.6945  20.8649  20.9104  21.0159  21.1892  21.4154
    21.5913  22.0421  23.7145  25.3594  25.4279  28.4081  30.5707  32.1549
    32.9336  33.7953  34.3311  35.2471  35.5821  36.4263  36.5078  36.9005

          k = 0.0365-0.2710-0.0961 ( 16285 PWs)   bands (ev):

   -76.9089 -76.8289 -76.8236 -62.7365 -62.7358 -62.7101 -62.7091 -56.8789
   -45.3418 -45.3386 -45.2950 -45.2877 -45.2833 -45.2755 -45.2748 -45.2568
   -45.2557 -45.2545 -45.2533 -45.1988 -45.1982 -45.1976 -45.1972 -45.1857
   -45.1853 -45.1848 -45.1847 -45.1841 -45.1837 -31.0719 -31.0558 -30.9696
   -30.9400 -30.9376 -30.8860 -30.8635 -30.8446 -30.8326 -28.5084 -28.5033
   -28.4729 -28.4674 -28.4458 -28.4437 -28.3761 -28.3756 -28.3255 -28.3253
   -28.2954 -28.2943 -24.7550 -24.6759 -24.6129  14.6990  15.0186  15.4301
    16.3310  16.4946  16.7199  16.7497  16.9107  17.2530  17.5490  17.6133
    17.6708  17.7470  17.7905  17.9427  18.0439  18.3846  18.5661  18.5813
    18.7393  18.8405  18.9107  18.9695  19.1706  19.2149  19.2533  19.3111
    19.5637  19.6113  19.7579  19.8526  20.0186  20.0856  20.0932  20.1991
    20.3687  20.4997  20.6146  20.9017  21.0792  21.1972  21.3037  21.4659
    21.8388  22.1817  23.4861  23.5794  27.5859  28.1362  30.9778  31.2928
    32.1960  33.9925  34.1561  35.6150  35.7820  36.1426  36.3491  36.6460

          k = 0.0505-0.1468 0.0000 ( 16298 PWs)   bands (ev):

   -76.9089 -76.8334 -76.8190 -62.7397 -62.7392 -62.7067 -62.7058 -56.8789
   -45.3418 -45.3386 -45.2950 -45.2877 -45.2833 -45.2755 -45.2748 -45.2571
   -45.2555 -45.2551 -45.2527 -45.1988 -45.1982 -45.1976 -45.1972 -45.1859
   -45.1854 -45.1848 -45.1845 -45.1840 -45.1836 -31.1296 -31.0735 -30.9403
   -30.9377 -30.9056 -30.8938 -30.8550 -30.8442 -30.8223 -28.5146 -28.5130
   -28.5009 -28.4983 -28.4675 -28.4641 -28.3388 -28.3386 -28.3158 -28.3153
   -28.2828 -28.2821 -24.7518 -24.6759 -24.6127  13.7284  14.8810  15.5977
    16.0735  16.2882  16.4138  16.5494  16.6901  16.7676  16.8513  17.7725
    17.9516  17.9915  18.0280  18.1164  18.4231  18.4757  18.6635  18.8336
    18.8757  18.9294  18.9954  19.0717  19.1357  19.2338  19.3071  19.3551
    19.4788  19.6930  19.7742  19.8059  20.1376  20.3767  20.5648  20.6642
    20.8103  20.8953  21.0921  21.1339  21.2240  21.3389  21.4204  21.5608
    21.7837  21.9699  24.0890  24.8155  26.1825  27.9066  29.5073  30.1085
    32.0462  32.8771  34.1982  34.3930  34.6857  35.4304  36.0885  36.2247

          k = 0.0645-0.1218 0.0961 ( 16305 PWs)   bands (ev):

   -76.9089 -76.8334 -76.8190 -62.7397 -62.7392 -62.7067 -62.7058 -56.8789
   -45.3418 -45.3386 -45.2950 -45.2877 -45.2833 -45.2755 -45.2748 -45.2571
   -45.2555 -45.2551 -45.2527 -45.1988 -45.1982 -45.1976 -45.1972 -45.1859
   -45.1854 -45.1848 -45.1845 -45.1840 -45.1836 -31.1296 -31.0735 -30.9402
   -30.9377 -30.9056 -30.8938 -30.8550 -30.8442 -30.8223 -28.5155 -28.5118
   -28.5013 -28.4980 -28.4681 -28.4636 -28.3389 -28.3386 -28.3157 -28.3154
   -28.2828 -28.2821 -24.7518 -24.6759 -24.6127  13.7883  14.7602  15.5458
    16.1252  16.2963  16.3427  16.5054  16.6384  16.8991  17.0440  17.7980
    17.8417  17.9977  18.0624  18.2336  18.4402  18.5640  18.6692  18.7232
    18.7712  18.8809  18.9276  18.9862  19.1135  19.1717  19.2466  19.3529
    19.4664  19.7431  19.8348  19.9570  20.2994  20.3328  20.4288  20.4733
    20.9051  20.9818  21.0491  21.1707  21.2975  21.4217  21.5007  21.6767
    21.7760  22.1021  23.5977  24.1188  26.8885  28.5940  29.3864  30.2431
    31.6687  32.3655  33.2022  34.7080  35.0347  35.3220  36.6321  36.9870

          k = 0.0365-0.1719-0.0961 ( 16284 PWs)   bands (ev):

   -76.9089 -76.8334 -76.8190 -62.7397 -62.7392 -62.7067 -62.7058 -56.8789
   -45.3418 -45.3386 -45.2950 -45.2877 -45.2833 -45.2755 -45.2748 -45.2571
   -45.2555 -45.2551 -45.2527 -45.1988 -45.1982 -45.1976 -45.1972 -45.1859
   -45.1854 -45.1848 -45.1845 -45.1840 -45.1836 -31.1296 -31.0735 -30.9402
   -30.9377 -30.9056 -30.8938 -30.8551 -30.8442 -30.8223 -28.5162 -28.5112
   -28.5007 -28.4982 -28.4678 -28.4641 -28.3388 -28.3386 -28.3157 -28.3154
   -28.2828 -28.2821 -24.7518 -24.6759 -24.6127  13.9037  14.5557  15.5655
    16.0284  16.2525  16.2815  16.4941  16.8540  16.9636  17.2817  17.6410
    17.8414  18.0081  18.1652  18.3279  18.4291  18.5160  18.5919  18.6865
    18.7201  18.7309  18.9023  18.9987  19.0455  19.0815  19.1938  19.2793
    19.6941  19.9188  19.9556  20.0658  20.1338  20.1798  20.2345  20.4649
    20.9888  21.0952  21.1421  21.2617  21.2940  21.4680  21.5648  21.8506
    22.2245  22.2965  22.7897  23.1241  28.3075  29.0860  29.4130  30.2031
    31.1655  31.6259  32.0565  34.6460  35.6889  36.0863  36.8755  37.4264

          k = 0.0505-0.0477 0.0000 ( 16292 PWs)   bands (ev):

   -76.9089 -76.8361 -76.8164 -62.7424 -62.7420 -62.7039 -62.7031 -56.8788
   -45.3418 -45.3386 -45.2950 -45.2877 -45.2833 -45.2755 -45.2748 -45.2573
   -45.2554 -45.2553 -45.2524 -45.1989 -45.1982 -45.1976 -45.1972 -45.1860
   -45.1854 -45.1849 -45.1844 -45.1840 -45.1836 -31.1720 -31.0752 -30.9404
   -30.9377 -30.9169 -30.8610 -30.8475 -30.8351 -30.8163 -28.5418 -28.5394
   -28.5122 -28.5059 -28.4645 -28.4623 -28.3467 -28.3464 -28.2815 -28.2809
   -28.2743 -28.2740 -24.7487 -24.6759 -24.6126  13.2548  14.5426  15.5332
    15.8691  16.1202  16.1669  16.2692  16.4434  16.6241  16.6961  17.9895
    18.0380  18.1509  18.1523  18.2724  18.3447  18.5022  18.5718  18.6936
    18.8334  18.8860  18.9414  18.9606  18.9855  19.0277  19.8214  19.8695
    19.8809  19.9711  20.0060  20.1313  20.3031  20.3896  20.6739  20.8843
    20.9383  20.9988  21.1789  21.3719  21.3933  21.4726  21.7242  21.8915
    22.7844  23.2311  23.4245  25.4677  25.5872  27.6621  28.1787  29.1367
    30.8839  31.1407  34.3606  34.5777  34.6216  34.9990  35.1673  35.6308

          k = 0.0645-0.0227 0.0961 ( 16316 PWs)   bands (ev):

   -76.9089 -76.8361 -76.8164 -62.7424 -62.7420 -62.7039 -62.7031 -56.8788
   -45.3418 -45.3386 -45.2950 -45.2877 -45.2833 -45.2755 -45.2748 -45.2573
   -45.2554 -45.2553 -45.2524 -45.1989 -45.1982 -45.1976 -45.1972 -45.1860
   -45.1854 -45.1849 -45.1844 -45.1840 -45.1836 -31.1720 -31.0752 -30.9403
   -30.9377 -30.9169 -30.8612 -30.8475 -30.8351 -30.8163 -28.5415 -28.5399
   -28.5105 -28.5071 -28.4651 -28.4619 -28.3468 -28.3464 -28.2815 -28.2809
   -28.2743 -28.2741 -24.7487 -24.6759 -24.6126  13.3813  14.2894  15.4779
    15.8771  15.9746  16.0810  16.2290  16.5671  16.9138  17.0144  17.7659
    18.0016  18.0971  18.1914  18.3713  18.4464  18.5905  18.6162  18.7084
    18.7805  18.8431  18.8745  18.9446  19.0254  19.0693  19.3582  19.4476
    19.9538  20.0163  20.1641  20.2279  20.2603  20.4392  20.8359  21.0564
    21.0852  21.2694  21.3404  21.3519  21.4705  21.5227  21.7114  21.8683
    22.1099  22.8175  23.6098  24.4672  26.2564  28.2597  28.8678  29.4467
    30.5671  31.6711  32.2027  33.2940  34.1921  35.1138  36.2310  36.7208

          k = 0.0365-0.0728-0.0961 ( 16309 PWs)   bands (ev):

   -76.9089 -76.8361 -76.8164 -62.7424 -62.7420 -62.7039 -62.7031 -56.8788
   -45.3418 -45.3386 -45.2950 -45.2877 -45.2833 -45.2755 -45.2748 -45.2573
   -45.2554 -45.2553 -45.2524 -45.1989 -45.1982 -45.1976 -45.1972 -45.1860
   -45.1854 -45.1849 -45.1844 -45.1840 -45.1836 -31.1720 -31.0752 -30.9402
   -30.9377 -30.9169 -30.8612 -30.8475 -30.8351 -30.8163 -28.5413 -28.5402
   -28.5111 -28.5064 -28.4652 -28.4619 -28.3467 -28.3464 -28.2815 -28.2809
   -28.2743 -28.2741 -24.7487 -24.6759 -24.6126  13.4014  14.2539  15.4886
    15.8581  15.9497  16.0703  16.2282  16.6032  16.9495  17.0575  17.7850
    17.9352  18.0960  18.1771  18.3712  18.4612  18.5813  18.6106  18.7274
    18.7718  18.8195  18.8920  18.9324  18.9419  19.1496  19.3648  19.5111
    19.9783  20.0214  20.0983  20.2469  20.2537  20.3100  20.8644  21.0558
    21.1792  21.3255  21.3396  21.3808  21.4990  21.5502  21.7029  21.8455
    22.0172  22.9207  23.3415  24.5053  26.2855  28.2662  29.0191  29.6373
    30.7817  31.2362  31.8972  33.3816  34.1665  35.1584  36.3742  36.5876

          k = 0.1516 0.0551 0.0000 ( 16308 PWs)   bands (ev):

   -76.9069 -76.8332 -76.8154 -62.7385 -62.7381 -62.7021 -62.7013 -56.8745
   -45.3416 -45.3389 -45.2950 -45.2877 -45.2833 -45.2754 -45.2750 -45.2570
   -45.2556 -45.2552 -45.2528 -45.1989 -45.1981 -45.1976 -45.1971 -45.1859
   -45.1854 -45.1850 -45.1844 -45.1841 -45.1836 -31.1531 -31.0705 -30.9817
   -30.9562 -30.9359 -30.8907 -30.8552 -30.8513 -30.8141 -28.5274 -28.5254
   -28.5068 -28.5012 -28.4625 -28.4605 -28.3782 -28.3781 -28.3194 -28.3186
   -28.2839 -28.2837 -24.7450 -24.6714 -24.6623  13.7783  14.9940  16.0491
    16.2406  16.3400  16.4668  16.5697  16.7066  16.9081  16.9966  17.7679
    17.9127  17.9873  18.0596  18.2392  18.2794  18.3857  18.4908  18.6712
    18.8018  18.8863  18.9233  18.9938  19.0227  19.2481  19.2937  19.4041
    19.5188  19.6338  19.7265  19.7825  19.9139  20.3887  20.5771  20.6522
    20.8869  20.9364  21.1018  21.2867  21.4129  21.5024  21.5535  21.7041
    24.1165  24.3196  24.4370  26.1305  26.5804  27.8999  28.3842  29.4263
    31.0858  31.5914  32.3030  33.0087  34.2643  34.8620  35.7514  36.2137

          k = 0.1656 0.0801 0.0961 ( 16258 PWs)   bands (ev):

   -76.9069 -76.8332 -76.8154 -62.7385 -62.7381 -62.7021 -62.7013 -56.8745
   -45.3416 -45.3389 -45.2950 -45.2877 -45.2833 -45.2754 -45.2750 -45.2570
   -45.2556 -45.2552 -45.2528 -45.1989 -45.1981 -45.1976 -45.1971 -45.1859
   -45.1854 -45.1850 -45.1844 -45.1841 -45.1836 -31.1531 -31.0705 -30.9817
   -30.9562 -30.9358 -30.8907 -30.8553 -30.8513 -30.8141 -28.5268 -28.5263
   -28.5048 -28.5027 -28.4627 -28.4604 -28.3782 -28.3781 -28.3193 -28.3186
   -28.2839 -28.2837 -24.7450 -24.6714 -24.6623  13.9460  14.6567  15.9500
    16.1705  16.3005  16.4268  16.5530  16.9509  17.3212  17.3990  17.5300
    17.7927  17.8917  17.9661  18.2323  18.3000  18.4056  18.5262  18.6231
    18.7122  18.7239  18.9390  19.0349  19.0830  19.1680  19.1989  19.2948
    19.4507  19.8772  19.9527  20.0590  20.1091  20.1437  20.2273  20.2992
    21.0281  21.1212  21.1304  21.2910  21.3661  21.6242  21.7219  22.3849
    22.7546  24.1048  24.9386  25.3138  26.7272  28.4742  29.5497  30.3531
    31.0054  31.3401  31.6916  32.0034  34.0767  34.2700  34.9432  35.3970

          k = 0.1376 0.0300-0.0961 ( 16298 PWs)   bands (ev):

   -76.9069 -76.8332 -76.8154 -62.7385 -62.7381 -62.7021 -62.7013 -56.8745
   -45.3416 -45.3389 -45.2950 -45.2877 -45.2833 -45.2754 -45.2750 -45.2570
   -45.2556 -45.2552 -45.2528 -45.1989 -45.1981 -45.1976 -45.1971 -45.1859
   -45.1854 -45.1850 -45.1844 -45.1841 -45.1836 -31.1531 -31.0705 -30.9817
   -30.9562 -30.9359 -30.8907 -30.8553 -30.8513 -30.8141 -28.5274 -28.5254
   -28.5058 -28.5020 -28.4626 -28.4604 -28.3782 -28.3781 -28.3193 -28.3186
   -28.2839 -28.2837 -24.7450 -24.6714 -24.6623  13.8232  14.8892  15.9891
    16.2550  16.3140  16.4586  16.5838  16.7688  16.9715  17.1171  17.7718
    17.8491  17.9998  18.0127  18.2059  18.3611  18.4256  18.5146  18.6727
    18.7165  18.7778  18.9093  18.9843  19.0446  19.1972  19.2749  19.3902
    19.4632  19.7242  19.8134  19.8759  19.9898  20.2711  20.4740  20.5842
    20.8882  20.9817  21.1481  21.3163  21.4337  21.6090  21.6412  21.6709
    23.7586  24.1416  24.7191  25.8355  26.6283  28.2904  28.6504  29.4385
    30.9302  31.7305  32.3037  33.3051  33.4122  34.4613  35.5942  35.8771

          k = 0.1516 0.1542 0.0000 ( 16279 PWs)   bands (ev):

   -76.9069 -76.8308 -76.8178 -62.7362 -62.7357 -62.7045 -62.7036 -56.8745
   -45.3416 -45.3389 -45.2950 -45.2877 -45.2833 -45.2754 -45.2750 -45.2569
   -45.2554 -45.2552 -45.2531 -45.1989 -45.1981 -45.1976 -45.1971 -45.1859
   -45.1853 -45.1850 -45.1844 -45.1841 -45.1837 -31.1207 -31.0692 -30.9818
   -30.9402 -30.9359 -30.9327 -30.8596 -30.8488 -30.8195 -28.5102 -28.5074
   -28.4951 -28.4932 -28.4648 -28.4623 -28.3690 -28.3686 -28.3459 -28.3448
   -28.2929 -28.2924 -24.7472 -24.6714 -24.6622  14.2328  15.2431  16.1352
    16.3631  16.4946  16.6408  16.7743  16.9342  17.0163  17.1432  17.5896
    17.7344  17.7927  17.9277  18.1888  18.2473  18.3584  18.4801  18.5191
    18.7057  18.8040  18.9306  19.0473  19.1010  19.1547  19.2738  19.3200
    19.4610  19.5185  19.6601  19.6653  19.8046  20.2029  20.4037  20.4918
    20.6299  20.7248  20.9689  21.3165  21.4709  21.5024  21.6404  21.9604
    22.7924  22.9981  24.6044  25.0267  27.4604  28.5061  29.4755  30.3453
    31.9712  32.5478  32.9899  33.7984  34.0586  35.2811  35.5417  36.3706

          k = 0.1656 0.1793 0.0961 ( 16284 PWs)   bands (ev):

   -76.9069 -76.8308 -76.8178 -62.7362 -62.7357 -62.7045 -62.7036 -56.8745
   -45.3416 -45.3389 -45.2950 -45.2877 -45.2833 -45.2754 -45.2750 -45.2569
   -45.2554 -45.2552 -45.2531 -45.1989 -45.1981 -45.1976 -45.1971 -45.1859
   -45.1853 -45.1850 -45.1844 -45.1841 -45.1837 -31.1207 -31.0692 -30.9818
   -30.9402 -30.9361 -30.9324 -30.8596 -30.8488 -30.8195 -28.5109 -28.5064
   -28.4958 -28.4927 -28.4651 -28.4621 -28.3691 -28.3686 -28.3457 -28.3449
   -28.2929 -28.2924 -24.7472 -24.6714 -24.6622  14.3661  14.9856  16.0497
    16.3502  16.5678  16.6279  16.7608  17.0636  17.1639  17.3014  17.5649
    17.6763  17.8756  17.9587  18.0416  18.1015  18.2501  18.5541  18.6274
    18.7157  18.7621  18.8768  19.0045  19.0308  19.1613  19.2186  19.2957
    19.3885  19.4774  19.8154  19.9633  20.0068  20.1004  20.1425  20.2799
    20.4310  20.9848  21.1663  21.2028  21.3710  21.5307  21.7678  22.7319
    22.9560  23.2698  23.5869  23.8498  28.9135  29.2230  29.9169  30.6234
    31.1733  31.7173  32.0514  32.5898  35.0797  35.4175  36.2258  36.4048

          k = 0.1376 0.1292-0.0961 ( 16285 PWs)   bands (ev):

   -76.9069 -76.8308 -76.8178 -62.7362 -62.7357 -62.7045 -62.7036 -56.8745
   -45.3416 -45.3389 -45.2950 -45.2877 -45.2833 -45.2754 -45.2750 -45.2569
   -45.2554 -45.2552 -45.2531 -45.1989 -45.1981 -45.1976 -45.1971 -45.1859
   -45.1853 -45.1850 -45.1844 -45.1841 -45.1837 -31.1207 -31.0693 -30.9818
   -30.9402 -30.9359 -30.9327 -30.8596 -30.8488 -30.8195 -28.5097 -28.5079
   -28.4956 -28.4929 -28.4653 -28.4617 -28.3691 -28.3685 -28.3458 -28.3448
   -28.2929 -28.2924 -24.7472 -24.6714 -24.6622  14.2088  15.3047  16.0706
    16.4845  16.5476  16.6634  16.7183  16.8462  16.9513  17.1144  17.5639
    17.7383  17.8751  17.8865  18.1368  18.2619  18.4157  18.4682  18.6066
    18.7381  18.9065  18.9230  18.9407  19.1097  19.1799  19.1953  19.3379
    19.4641  19.5481  19.5728  19.6230  19.8501  20.2327  20.3637  20.4193
    20.7676  20.8420  20.9239  21.2209  21.4823  21.5711  21.6019  21.7436
    22.7252  23.0270  24.9077  25.4312  26.9360  28.1295  29.4821  30.3917
    32.3910  32.8570  32.9490  33.6877  34.3212  35.0902  35.2303  36.4424

          k = 0.1516 0.2533 0.0000 ( 16281 PWs)   bands (ev):

   -76.9069 -76.8268 -76.8219 -62.7335 -62.7329 -62.7074 -62.7063 -56.8745
   -45.3416 -45.3389 -45.2950 -45.2877 -45.2833 -45.2754 -45.2750 -45.2566
   -45.2556 -45.2548 -45.2536 -45.1988 -45.1981 -45.1976 -45.1971 -45.1858
   -45.1853 -45.1850 -45.1845 -45.1841 -45.1837 -31.0681 -31.0635 -30.9957
   -30.9819 -30.9357 -30.9128 -30.8821 -30.8397 -30.8288 -28.5052 -28.5000
   -28.4693 -28.4663 -28.4532 -28.4507 -28.4006 -28.3994 -28.3408 -28.3405
   -28.3114 -28.3105 -24.7495 -24.6714 -24.6621  15.0288  15.5915  15.9192
    16.5177  16.8365  16.9136  16.9879  17.1064  17.1971  17.3287  17.3432
    17.4869  17.6623  17.6998  17.8385  18.0017  18.1376  18.2927  18.3740
    18.4569  18.7337  18.8407  18.8911  18.9169  19.0510  19.2016  19.4421
    19.5993  19.6235  19.7047  19.9656  20.0628  20.2544  20.3477  20.5227
    20.5642  20.7913  21.0390  21.0650  21.2018  21.2646  21.4871  21.6105
    21.9124  22.8779  23.3902  25.2609  26.8530  29.5432  29.8315  32.3596
    33.1081  33.4654  33.8754  34.8393  35.0131  35.2237  35.6626  36.0360

          k = 0.1656 0.2784 0.0961 ( 16284 PWs)   bands (ev):

   -76.9069 -76.8268 -76.8219 -62.7335 -62.7329 -62.7074 -62.7063 -56.8745
   -45.3416 -45.3389 -45.2950 -45.2877 -45.2833 -45.2754 -45.2750 -45.2566
   -45.2556 -45.2548 -45.2536 -45.1988 -45.1981 -45.1976 -45.1971 -45.1858
   -45.1853 -45.1850 -45.1845 -45.1841 -45.1837 -31.0681 -31.0635 -30.9957
   -30.9818 -30.9357 -30.9128 -30.8821 -30.8397 -30.8288 -28.5041 -28.5011
   -28.4700 -28.4655 -28.4529 -28.4511 -28.4003 -28.3997 -28.3408 -28.3405
   -28.3114 -28.3105 -24.7495 -24.6714 -24.6621  15.0785  15.5150  15.8966
    16.6538  16.6881  16.9093  17.0150  17.1381  17.2300  17.3520  17.4190
    17.4579  17.5073  17.7224  17.9108  17.9508  18.1245  18.3451  18.3851
    18.5496  18.7090  18.7519  18.8212  18.9057  19.0221  19.2808  19.4834
    19.5193  19.6376  19.7774  19.8828  20.0644  20.2671  20.3169  20.5150
    20.6262  20.8015  20.9770  21.0817  21.1324  21.3874  21.4129  21.6277
    22.0960  22.9648  23.3800  24.6285  27.4334  29.2152  30.4190  32.1448
    32.4220  33.5973  33.9616  34.6363  35.3312  35.4927  35.7366  35.9642

          k = 0.1376 0.2283-0.0961 ( 16292 PWs)   bands (ev):

   -76.9069 -76.8268 -76.8219 -62.7335 -62.7329 -62.7074 -62.7063 -56.8745
   -45.3416 -45.3389 -45.2950 -45.2877 -45.2833 -45.2754 -45.2750 -45.2566
   -45.2556 -45.2548 -45.2536 -45.1988 -45.1981 -45.1976 -45.1971 -45.1858
   -45.1853 -45.1850 -45.1845 -45.1841 -45.1837 -31.0680 -31.0636 -30.9957
   -30.9818 -30.9357 -30.9129 -30.8821 -30.8397 -30.8288 -28.5039 -28.5013
   -28.4695 -28.4663 -28.4523 -28.4514 -28.4006 -28.3994 -28.3407 -28.3406
   -28.3114 -28.3105 -24.7495 -24.6714 -24.6621  14.9538  15.7735  15.8676
    16.5847  16.8235  16.8893  16.9366  17.1004  17.1568  17.2355  17.3013
    17.5484  17.6416  17.7656  17.8992  18.0522  18.1480  18.2101  18.2900
    18.3867  18.8481  18.8727  18.9499  19.0062  19.1510  19.2543  19.3091
    19.3601  19.5677  19.8259  20.0113  20.1089  20.2491  20.3628  20.4286
    20.6229  20.7981  21.0058  21.0399  21.3004  21.3079  21.5144  21.7278
    21.7547  22.0017  24.7050  25.2553  26.5781  28.0091  31.4906  32.0721
    33.1060  33.4285  34.3177  34.4926  34.9130  35.4195  35.5272  36.2216

          k = 0.1516-0.2423 0.0000 ( 16285 PWs)   bands (ev):

   -76.9069 -76.8267 -76.8219 -62.7335 -62.7328 -62.7074 -62.7063 -56.8745
   -45.3416 -45.3389 -45.2950 -45.2877 -45.2833 -45.2754 -45.2750 -45.2566
   -45.2556 -45.2548 -45.2536 -45.1988 -45.1981 -45.1976 -45.1971 -45.1857
   -45.1854 -45.1849 -45.1846 -45.1841 -45.1837 -31.0680 -31.0635 -30.9953
   -30.9819 -30.9357 -30.9124 -30.8830 -30.8397 -30.8289 -28.5049 -28.5002
   -28.4693 -28.4667 -28.4521 -28.4500 -28.4013 -28.3999 -28.3410 -28.3406
   -28.3112 -28.3106 -24.7495 -24.6714 -24.6621  14.9706  15.7211  15.8937
    16.5490  16.8262  16.8997  16.9923  17.0998  17.1213  17.2527  17.3119
    17.5940  17.6459  17.7587  17.8307  18.0607  18.1302  18.2360  18.3140
    18.3927  18.7988  18.8993  18.9179  19.0386  19.0979  19.1660  19.3395
    19.5199  19.5786  19.7417  20.0728  20.1222  20.1940  20.2927  20.4969
    20.5838  20.9068  20.9628  21.0124  21.2158  21.3494  21.5087  21.6269
    21.7798  22.2591  24.1713  25.8592  26.1787  28.4537  30.8515  32.6039
    32.7232  33.8906  34.1736  34.5460  34.7836  35.1558  35.5406  36.2620

          k = 0.1656-0.2172 0.0961 ( 16279 PWs)   bands (ev):

   -76.9069 -76.8267 -76.8219 -62.7335 -62.7328 -62.7074 -62.7063 -56.8745
   -45.3416 -45.3389 -45.2950 -45.2877 -45.2833 -45.2754 -45.2750 -45.2566
   -45.2556 -45.2548 -45.2536 -45.1988 -45.1981 -45.1976 -45.1971 -45.1857
   -45.1854 -45.1849 -45.1846 -45.1841 -45.1837 -31.0680 -31.0635 -30.9953
   -30.9818 -30.9357 -30.9124 -30.8830 -30.8397 -30.8289 -28.5032 -28.5020
   -28.4700 -28.4660 -28.4512 -28.4509 -28.4011 -28.4001 -28.3410 -28.3406
   -28.3112 -28.3106 -24.7495 -24.6714 -24.6621  14.9937  15.6796  15.8758
    16.5812  16.8398  16.8996  16.9633  17.0796  17.1855  17.2966  17.3509
    17.4859  17.5536  17.7628  17.9107  18.0874  18.1576  18.1935  18.3227
    18.4441  18.7859  18.8330  18.9271  19.0143  19.0908  19.1575  19.3519
    19.4867  19.6574  19.7082  19.9994  20.1516  20.2550  20.3672  20.4599
    20.5377  20.8583  21.0023  21.0694  21.1520  21.2911  21.5194  21.6091
    21.8174  22.5334  23.8690  25.7410  26.1996  28.9667  30.5354  32.3381
    33.0708  33.9181  34.0457  34.4257  34.7707  35.1645  35.5431  36.0559

          k = 0.1376-0.2673-0.0961 ( 16295 PWs)   bands (ev):

   -76.9069 -76.8267 -76.8219 -62.7335 -62.7328 -62.7074 -62.7063 -56.8745
   -45.3416 -45.3389 -45.2950 -45.2877 -45.2833 -45.2754 -45.2750 -45.2566
   -45.2556 -45.2548 -45.2536 -45.1988 -45.1981 -45.1976 -45.1971 -45.1857
   -45.1854 -45.1849 -45.1846 -45.1841 -45.1837 -31.0681 -31.0635 -30.9953
   -30.9819 -30.9357 -30.9123 -30.8830 -30.8397 -30.8289 -28.5048 -28.5002
   -28.4700 -28.4658 -28.4524 -28.4500 -28.4009 -28.4003 -28.3411 -28.3406
   -28.3112 -28.3106 -24.7495 -24.6714 -24.6621  15.1074  15.4687  15.9152
    16.5783  16.7435  16.9091  17.0279  17.1115  17.2412  17.3637  17.4257
    17.5548  17.5575  17.6016  17.8895  17.9503  18.0925  18.3859  18.4185
    18.5608  18.7158  18.7427  18.7781  18.8752  18.9999  19.3632  19.4564
    19.5408  19.6745  19.7382  19.8459  20.1147  20.2100  20.2600  20.5049
    20.7154  20.8238  20.9255  21.0373  21.1909  21.3376  21.4379  21.6536
    22.3056  22.6317  23.7781  24.1804  28.1297  28.4914  31.0640  31.6898
    32.2100  33.6850  33.9360  34.5895  35.4509  35.7052  35.8963  35.9713

          k = 0.1516-0.1431 0.0000 ( 16290 PWs)   bands (ev):

   -76.9069 -76.8308 -76.8178 -62.7362 -62.7357 -62.7045 -62.7036 -56.8745
   -45.3416 -45.3389 -45.2950 -45.2877 -45.2833 -45.2754 -45.2750 -45.2569
   -45.2554 -45.2552 -45.2531 -45.1988 -45.1981 -45.1976 -45.1971 -45.1858
   -45.1854 -45.1849 -45.1845 -45.1841 -45.1837 -31.1205 -31.0692 -30.9818
   -30.9400 -30.9358 -30.9320 -30.8607 -30.8489 -30.8195 -28.5092 -28.5078
   -28.4949 -28.4931 -28.4650 -28.4618 -28.3693 -28.3690 -28.3461 -28.3448
   -28.2929 -28.2926 -24.7473 -24.6714 -24.6622  14.1881  15.3622  16.1233
    16.4248  16.5192  16.6643  16.7604  16.8094  16.9793  17.0419  17.5358
    17.7578  17.8583  18.0174  18.1136  18.1766  18.4341  18.4900  18.5982
    18.7808  18.8537  18.8961  19.0209  19.1201  19.1632  19.2131  19.4139
    19.4777  19.5455  19.5715  19.5960  19.7247  20.2030  20.3873  20.4779
    20.7975  20.8972  20.9583  21.1089  21.4927  21.5342  21.5696  21.6660
    22.7550  22.9410  25.1762  25.8331  26.5183  27.8039  29.5703  30.2417
    32.7641  32.7994  33.2153  33.4559  34.8479  34.9838  35.1683  35.9204

          k = 0.1656-0.1181 0.0961 ( 16276 PWs)   bands (ev):

   -76.9069 -76.8308 -76.8178 -62.7362 -62.7357 -62.7045 -62.7036 -56.8745
   -45.3416 -45.3389 -45.2950 -45.2877 -45.2833 -45.2754 -45.2750 -45.2569
   -45.2554 -45.2552 -45.2531 -45.1988 -45.1981 -45.1976 -45.1971 -45.1858
   -45.1854 -45.1849 -45.1845 -45.1841 -45.1837 -31.1205 -31.0692 -30.9818
   -30.9400 -30.9360 -30.9317 -30.8607 -30.8490 -30.8195 -28.5101 -28.5067
   -28.4957 -28.4925 -28.4653 -28.4617 -28.3694 -28.3690 -28.3460 -28.3449
   -28.2929 -28.2926 -24.7473 -24.6714 -24.6622  14.2831  15.1405  16.0407
    16.4433  16.5314  16.6761  16.7698  16.8661  17.1171  17.2032  17.6427
    17.6840  17.7902  17.8843  18.1282  18.2882  18.3724  18.5058  18.5649
    18.6203  18.8311  18.9536  19.0251  19.0522  19.1583  19.2136  19.2705
    19.4042  19.5364  19.6960  19.7160  19.9864  20.1816  20.2368  20.4421
    20.5545  20.7933  21.0372  21.3019  21.4562  21.5757  21.6175  22.2109
    22.7123  23.1888  24.1891  24.6335  27.8731  29.0525  29.4104  30.5400
    31.6580  32.4475  32.6571  33.0307  34.3314  35.6557  35.8446  36.0786

          k = 0.1376-0.1682-0.0961 ( 16284 PWs)   bands (ev):

   -76.9069 -76.8308 -76.8178 -62.7362 -62.7357 -62.7045 -62.7036 -56.8745
   -45.3416 -45.3389 -45.2950 -45.2877 -45.2833 -45.2754 -45.2750 -45.2569
   -45.2554 -45.2552 -45.2531 -45.1988 -45.1981 -45.1976 -45.1971 -45.1858
   -45.1854 -45.1849 -45.1845 -45.1841 -45.1837 -31.1205 -31.0692 -30.9818
   -30.9400 -30.9360 -30.9317 -30.8607 -30.8490 -30.8195 -28.5106 -28.5062
   -28.4953 -28.4928 -28.4647 -28.4623 -28.3693 -28.3690 -28.3460 -28.3449
   -28.2928 -28.2927 -24.7473 -24.6714 -24.6622  14.3350  15.0408  16.0886
    16.3250  16.5425  16.6207  16.7723  17.0533  17.1745  17.2224  17.6250
    17.6848  17.8455  17.9177  18.0779  18.1496  18.2780  18.5335  18.5968
    18.7095  18.7380  18.9462  18.9762  19.0678  19.1263  19.2640  19.3169
    19.4249  19.4335  19.7497  19.8775  20.0009  20.0946  20.2614  20.3369
    20.4347  20.9019  21.1123  21.2512  21.4012  21.5503  21.7148  22.6055
    22.7761  23.2981  23.6738  24.1737  28.6186  29.2482  29.8428  30.2263
    31.4264  32.0780  32.1819  32.7345  34.7773  35.7045  35.9398  36.4253

          k = 0.1516-0.0440 0.0000 ( 16317 PWs)   bands (ev):

   -76.9069 -76.8332 -76.8154 -62.7385 -62.7381 -62.7021 -62.7013 -56.8745
   -45.3416 -45.3389 -45.2950 -45.2877 -45.2833 -45.2754 -45.2750 -45.2570
   -45.2556 -45.2552 -45.2528 -45.1989 -45.1981 -45.1976 -45.1971 -45.1859
   -45.1854 -45.1850 -45.1844 -45.1841 -45.1837 -31.1530 -31.0705 -30.9817
   -30.9561 -30.9359 -30.8899 -30.8546 -30.8529 -30.8141 -28.5273 -28.5250
   -28.5068 -28.5013 -28.4624 -28.4605 -28.3783 -28.3782 -28.3194 -28.3185
   -28.2841 -28.2838 -24.7450 -24.6714 -24.6623  13.7620  15.0373  16.0481
    16.2513  16.4069  16.4760  16.5599  16.6423  16.8661  16.9539  17.7464
    17.8998  18.0085  18.0980  18.2079  18.2991  18.4741  18.5266  18.6297
    18.6694  18.9034  18.9745  19.0078  19.1325  19.2926  19.3023  19.3135
    19.4581  19.6890  19.7401  19.7732  19.7959  20.3769  20.6478  20.7555
    20.8578  20.8981  21.1396  21.2180  21.3316  21.4960  21.6125  21.6454
    24.2332  24.3009  24.4957  26.3102  26.4514  27.6987  28.3943  29.2844
    31.1912  31.5313  32.5160  32.7428  34.8921  35.2380  35.3564  35.8586

          k = 0.1656-0.0190 0.0961 ( 16278 PWs)   bands (ev):

   -76.9069 -76.8332 -76.8154 -62.7385 -62.7381 -62.7021 -62.7013 -56.8745
   -45.3416 -45.3389 -45.2950 -45.2877 -45.2833 -45.2754 -45.2750 -45.2570
   -45.2556 -45.2552 -45.2528 -45.1989 -45.1981 -45.1976 -45.1971 -45.1859
   -45.1854 -45.1850 -45.1844 -45.1841 -45.1837 -31.1530 -31.0705 -30.9817
   -30.9561 -30.9358 -30.8899 -30.8547 -30.8529 -30.8141 -28.5269 -28.5257
   -28.5047 -28.5029 -28.4627 -28.4604 -28.3783 -28.3782 -28.3194 -28.3185
   -28.2840 -28.2839 -24.7450 -24.6714 -24.6623  13.9120  14.7163  15.9496
    16.2016  16.3018  16.4363  16.5625  16.9044  17.1921  17.3094  17.6216
    17.8313  17.9378  17.9834  18.2137  18.3354  18.4508  18.5545  18.6038
    18.6814  18.7205  18.8759  18.9985  19.1206  19.1999  19.2446  19.3140
    19.3897  19.8701  19.9450  19.9876  20.0786  20.1382  20.2862  20.4094
    20.9559  21.0822  21.1748  21.3091  21.3795  21.6441  21.6804  22.0727
    23.1168  24.0805  24.9396  25.4014  26.7060  28.4938  29.3715  29.8011
    30.9591  31.5988  32.0596  32.2753  33.7916  34.2434  35.2091  35.4770

          k = 0.1376-0.0691-0.0961 ( 16289 PWs)   bands (ev):

   -76.9069 -76.8332 -76.8154 -62.7385 -62.7381 -62.7021 -62.7013 -56.8745
   -45.3416 -45.3389 -45.2950 -45.2877 -45.2833 -45.2754 -45.2750 -45.2570
   -45.2556 -45.2552 -45.2528 -45.1989 -45.1981 -45.1976 -45.1971 -45.1859
   -45.1854 -45.1850 -45.1844 -45.1841 -45.1837 -31.1530 -31.0705 -30.9817
   -30.9561 -30.9358 -30.8899 -30.8546 -30.8529 -30.8141 -28.5268 -28.5257
   -28.5059 -28.5018 -28.4626 -28.4604 -28.3783 -28.3782 -28.3194 -28.3185
   -28.2840 -28.2839 -24.7450 -24.6714 -24.6623  13.8706  14.7932  15.9900
    16.2046  16.2778  16.4532  16.5586  16.8736  17.0895  17.2213  17.7765
    17.8215  17.9831  17.9912  18.1005  18.3839  18.4625  18.5063  18.5922
    18.6929  18.7625  18.8843  19.0245  19.1506  19.1889  19.2185  19.3581
    19.4106  19.7800  19.8484  19.9277  20.0904  20.2843  20.3732  20.4014
    21.0003  21.0304  21.0725  21.3294  21.4296  21.5750  21.6999  21.9012
    23.3973  24.1812  24.6555  25.6735  26.7151  28.3562  29.0389  29.7427
    30.9268  31.7344  32.0213  32.6345  33.7091  34.2875  35.4385  35.7305

          k = 0.2526 0.0588 0.0000 ( 16291 PWs)   bands (ev):

   -76.9038 -76.8283 -76.8141 -62.7321 -62.7316 -62.6994 -62.6985 -56.8674
   -45.3413 -45.3393 -45.2949 -45.2878 -45.2832 -45.2754 -45.2752 -45.2566
   -45.2557 -45.2550 -45.2535 -45.1989 -45.1979 -45.1976 -45.1970 -45.1859
   -45.1855 -45.1850 -45.1845 -45.1843 -45.1836 -31.1198 -31.0629 -31.0522
   -31.0162 -30.9684 -30.9287 -30.8770 -30.8432 -30.8112 -28.5060 -28.5050
   -28.4936 -28.4905 -28.4592 -28.4578 -28.4267 -28.4263 -28.3813 -28.3798
   -28.3028 -28.3026 -24.7425 -24.7385 -24.6641  14.6848  15.7191  16.6393
    16.6974  16.7056  16.9379  16.9615  17.0677  17.2393  17.4055  17.4598
    17.6173  17.6794  17.7756  17.9320  18.0744  18.1744  18.3915  18.4775
    18.5334  18.7327  18.7628  18.9261  19.0578  19.1275  19.4055  19.4362
    19.4878  19.6261  19.8217  19.8973  20.0133  20.1509  20.4502  20.5638
    20.7764  20.9209  20.9818  21.2738  21.4503  21.5399  21.5932  22.1706
    25.2784  25.5148  25.7655  27.2612  27.5898  28.4117  28.8637  29.6206
    30.2343  30.5147  31.6625  32.6883  33.5259  34.2635  35.0262  35.2607

          k = 0.2667 0.0838 0.0961 ( 16273 PWs)   bands (ev):

   -76.9038 -76.8283 -76.8141 -62.7321 -62.7316 -62.6994 -62.6985 -56.8674
   -45.3413 -45.3393 -45.2949 -45.2878 -45.2832 -45.2754 -45.2752 -45.2566
   -45.2557 -45.2550 -45.2535 -45.1989 -45.1979 -45.1976 -45.1970 -45.1859
   -45.1855 -45.1850 -45.1845 -45.1843 -45.1836 -31.1198 -31.0629 -31.0522
   -31.0162 -30.9685 -30.9286 -30.8770 -30.8432 -30.8112 -28.5066 -28.5042
   -28.4933 -28.4908 -28.4591 -28.4579 -28.4267 -28.4263 -28.3810 -28.3801
   -28.3027 -28.3027 -24.7425 -24.7385 -24.6641  14.8081  15.4286  16.6087
    16.6183  16.8135  16.9734  17.0807  17.1874  17.4247  17.4843  17.5616
    17.5858  17.6407  17.6913  17.7565  17.9194  18.0050  18.4822  18.5049
    18.5501  18.7071  18.7656  18.8028  19.0976  19.2474  19.3441  19.4075
    19.6208  19.7001  19.8128  20.0394  20.0532  20.1396  20.2684  20.5297
    20.7009  20.7827  21.1275  21.1825  21.3359  21.4492  21.6117  23.6038
    23.6444  25.1918  26.4565  26.7684  27.2197  28.8711  29.2804  30.2281
    31.0807  31.3124  31.5875  31.9154  32.4704  33.2071  34.5670  35.6611

          k = 0.2386 0.0337-0.0961 ( 16291 PWs)   bands (ev):

   -76.9038 -76.8283 -76.8141 -62.7321 -62.7316 -62.6994 -62.6985 -56.8674
   -45.3413 -45.3393 -45.2949 -45.2878 -45.2832 -45.2754 -45.2752 -45.2566
   -45.2557 -45.2550 -45.2535 -45.1989 -45.1979 -45.1976 -45.1970 -45.1859
   -45.1855 -45.1850 -45.1845 -45.1843 -45.1836 -31.1198 -31.0629 -31.0522
   -31.0162 -30.9684 -30.9287 -30.8770 -30.8432 -30.8112 -28.5063 -28.5046
   -28.4933 -28.4907 -28.4592 -28.4577 -28.4268 -28.4262 -28.3812 -28.3799
   -28.3028 -28.3026 -24.7425 -24.7385 -24.6641  14.6894  15.7024  16.6300
    16.6994  16.7598  16.8770  16.9439  17.1455  17.2297  17.3937  17.4345
    17.6256  17.7153  17.7293  17.9711  18.0427  18.1774  18.4005  18.4829
    18.5708  18.6733  18.8191  18.8522  19.0608  19.2091  19.3360  19.4297
    19.4836  19.6600  19.7201  19.9499  20.0786  20.2332  20.3724  20.4559
    20.8396  20.9335  21.0181  21.2397  21.4827  21.5382  21.5810  22.1436
    25.2329  25.4968  25.8933  27.2050  27.5206  28.4186  29.0681  29.6107
    30.0642  30.5241  31.5757  32.8310  33.5435  34.2285  34.9908  35.3027

          k = 0.2526 0.1579 0.0000 ( 16275 PWs)   bands (ev):

   -76.9038 -76.8264 -76.8160 -62.7305 -62.7299 -62.7010 -62.7001 -56.8674
   -45.3413 -45.3393 -45.2949 -45.2878 -45.2832 -45.2754 -45.2752 -45.2565
   -45.2555 -45.2552 -45.2537 -45.1989 -45.1980 -45.1976 -45.1970 -45.1859
   -45.1855 -45.1850 -45.1844 -45.1843 -45.1836 -31.1146 -31.0624 -31.0525
   -31.0055 -30.9827 -30.9286 -30.8787 -30.8389 -30.8154 -28.5037 -28.5023
   -28.4926 -28.4898 -28.4609 -28.4594 -28.4174 -28.4167 -28.3889 -28.3876
   -28.3063 -28.3060 -24.7428 -24.7385 -24.6641  14.9741  15.7701  16.5924
    16.6009  16.7156  16.8317  16.9260  17.0087  17.2009  17.3345  17.4635
    17.6158  17.6472  17.8128  17.9103  17.9698  18.1661  18.3879  18.5969
    18.6325  18.7908  18.8080  19.0306  19.0448  19.2097  19.3666  19.4029
    19.4369  19.8023  19.9216  19.9612  20.0695  20.0953  20.3981  20.5557
    20.6471  20.7942  20.9867  21.3474  21.5095  21.6270  21.7161  22.7194
    23.6891  24.2097  25.4127  25.8692  28.7084  29.0272  29.3830  30.4514
    30.6775  31.4339  32.7537  33.1421  33.4583  33.9884  34.1033  35.1287

          k = 0.2667 0.1830 0.0961 ( 16266 PWs)   bands (ev):

   -76.9038 -76.8264 -76.8160 -62.7305 -62.7299 -62.7010 -62.7001 -56.8674
   -45.3413 -45.3393 -45.2949 -45.2878 -45.2832 -45.2754 -45.2752 -45.2565
   -45.2555 -45.2552 -45.2537 -45.1989 -45.1980 -45.1976 -45.1970 -45.1859
   -45.1855 -45.1850 -45.1844 -45.1843 -45.1836 -31.1146 -31.0624 -31.0525
   -31.0056 -30.9827 -30.9286 -30.8787 -30.8390 -30.8154 -28.5042 -28.5016
   -28.4928 -28.4899 -28.4611 -28.4591 -28.4176 -28.4164 -28.3889 -28.3876
   -28.3063 -28.3060 -24.7428 -24.7385 -24.6641  15.0395  15.6168  16.5679
    16.6739  16.7485  16.8459  16.8933  17.1170  17.2123  17.3950  17.4351
    17.4881  17.6162  17.7832  17.9666  18.0497  18.2653  18.4116  18.4411
    18.6023  18.6775  18.7087  19.0575  19.1276  19.2629  19.2800  19.4021
    19.5076  19.7636  19.9658  20.0308  20.1698  20.2991  20.3783  20.4076
    20.4364  20.6479  21.1794  21.2718  21.4161  21.5898  21.7713  23.4706
    23.6709  24.4046  24.6359  25.1914  28.9673  29.6682  30.2828  30.4848
    31.0548  31.0931  32.2088  32.6321  32.7103  33.5098  34.1991  34.6388

          k = 0.2386 0.1329-0.0961 ( 16283 PWs)   bands (ev):

   -76.9038 -76.8264 -76.8160 -62.7305 -62.7299 -62.7010 -62.7001 -56.8674
   -45.3413 -45.3393 -45.2949 -45.2878 -45.2832 -45.2754 -45.2752 -45.2565
   -45.2555 -45.2552 -45.2537 -45.1989 -45.1980 -45.1976 -45.1970 -45.1859
   -45.1855 -45.1850 -45.1844 -45.1843 -45.1836 -31.1146 -31.0624 -31.0525
   -31.0055 -30.9827 -30.9286 -30.8787 -30.8389 -30.8154 -28.5036 -28.5023
   -28.4924 -28.4901 -28.4613 -28.4589 -28.4176 -28.4165 -28.3887 -28.3877
   -28.3064 -28.3060 -24.7428 -24.7385 -24.6641  14.9456  15.8540  16.5993
    16.6422  16.7336  16.7849  16.8279  16.8624  17.2927  17.4435  17.5273
    17.5721  17.6529  17.7422  17.7764  18.0520  18.2255  18.3420  18.6181
    18.7374  18.7693  18.8894  18.9702  19.0098  19.3250  19.3522  19.3780
    19.5874  19.6088  19.7577  19.9521  20.0592  20.1697  20.2097  20.5587
    20.8427  20.9335  21.1736  21.2963  21.5592  21.6755  21.7377  22.0041
    23.7257  23.9780  26.4467  26.7812  27.6469  28.0907  29.2881  30.3244
    30.7528  31.1733  33.5781  33.6344  33.7816  34.6163  34.6624  35.1472

          k = 0.2526 0.2570 0.0000 ( 16286 PWs)   bands (ev):

   -76.9038 -76.8232 -76.8192 -62.7287 -62.7281 -62.7029 -62.7019 -56.8674
   -45.3413 -45.3393 -45.2949 -45.2878 -45.2832 -45.2754 -45.2752 -45.2563
   -45.2553 -45.2552 -45.2541 -45.1989 -45.1980 -45.1976 -45.1969 -45.1858
   -45.1855 -45.1849 -45.1845 -45.1843 -45.1836 -31.0923 -31.0618 -31.0530
   -31.0527 -30.9379 -30.9286 -30.8986 -30.8316 -30.8228 -28.4996 -28.4960
   -28.4806 -28.4792 -28.4628 -28.4611 -28.4484 -28.4466 -28.3555 -28.3551
   -28.3237 -28.3232 -24.7420 -24.7397 -24.6641  15.4957  16.0007  16.1552
    16.5861  16.6955  16.7838  16.9073  16.9280  17.0844  17.2243  17.3361
    17.3783  17.5992  17.8446  17.9017  17.9668  18.2123  18.4690  18.5641
    18.5889  18.7545  18.9563  19.0126  19.0755  19.1033  19.2626  19.4062
    19.5894  19.8892  20.0435  20.1751  20.3488  20.4544  20.6553  20.7018
    20.8387  21.1604  21.2537  21.2701  21.3972  21.5063  21.5976  22.2550
    22.7200  23.6944  23.8576  25.6523  27.8345  30.0456  30.4941  30.8631
    32.1523  32.2997  32.7611  33.1760  33.6418  34.0300  34.6258  35.5371

          k = 0.2667 0.2821 0.0961 ( 16277 PWs)   bands (ev):

   -76.9038 -76.8232 -76.8192 -62.7287 -62.7281 -62.7029 -62.7019 -56.8674
   -45.3413 -45.3393 -45.2949 -45.2878 -45.2832 -45.2754 -45.2752 -45.2563
   -45.2553 -45.2552 -45.2541 -45.1989 -45.1980 -45.1976 -45.1969 -45.1858
   -45.1855 -45.1849 -45.1845 -45.1843 -45.1836 -31.0923 -31.0618 -31.0532
   -31.0525 -30.9379 -30.9285 -30.8986 -30.8316 -30.8228 -28.4987 -28.4970
   -28.4807 -28.4788 -28.4633 -28.4607 -28.4477 -28.4471 -28.3555 -28.3551
   -28.3237 -28.3232 -24.7420 -24.7397 -24.6641  15.5243  15.9345  16.2234
    16.4511  16.7613  16.8119  16.8963  16.9502  17.0779  17.2276  17.3014
    17.3951  17.6313  17.8270  17.9348  18.0166  18.2750  18.3342  18.4721
    18.6343  18.7338  18.9566  18.9900  19.0687  19.1527  19.2888  19.4333
    19.6385  19.8486  20.0569  20.1798  20.2718  20.4835  20.6618  20.7159
    20.9390  21.0353  21.2260  21.2974  21.4176  21.5188  21.5786  22.2853
    22.6632  23.6723  23.8838  25.6970  27.8443  30.0109  30.3615  30.9848
    32.0906  32.6131  32.6921  32.8701  33.7385  34.0788  34.7078  35.4752

          k = 0.2386 0.2320-0.0961 ( 16284 PWs)   bands (ev):

   -76.9038 -76.8232 -76.8192 -62.7287 -62.7281 -62.7029 -62.7019 -56.8674
   -45.3413 -45.3393 -45.2949 -45.2878 -45.2832 -45.2754 -45.2752 -45.2563
   -45.2553 -45.2552 -45.2541 -45.1989 -45.1980 -45.1976 -45.1969 -45.1858
   -45.1855 -45.1849 -45.1845 -45.1843 -45.1836 -31.0923 -31.0618 -31.0533
   -31.0523 -30.9378 -30.9286 -30.8986 -30.8316 -30.8228 -28.4989 -28.4968
   -28.4804 -28.4791 -28.4636 -28.4601 -28.4487 -28.4465 -28.3554 -28.3552
   -28.3237 -28.3232 -24.7420 -24.7397 -24.6641  15.4779  16.0682  16.1834
    16.5338  16.6217  16.7736  16.8269  16.9440  17.0912  17.2222  17.3306
    17.6079  17.6492  17.7699  17.8413  18.0244  18.1751  18.2360  18.5232
    18.7543  18.8638  18.9949  19.0183  19.0572  19.1514  19.2893  19.3061
    19.7440  19.8802  19.9611  19.9758  20.1811  20.6195  20.7579  20.8319
    20.9430  20.9727  21.2406  21.3279  21.4745  21.5214  21.9919  22.2238
    22.2642  22.4595  25.6021  25.7745  27.8515  28.0739  30.8215  31.3321
    32.2678  32.8421  32.9437  33.4644  33.5605  34.0701  34.2812  35.3875

          k = 0.2526-0.2386 0.0000 ( 16283 PWs)   bands (ev):

   -76.9038 -76.8231 -76.8193 -62.7287 -62.7280 -62.7030 -62.7019 -56.8674
   -45.3413 -45.3393 -45.2949 -45.2878 -45.2832 -45.2754 -45.2752 -45.2563
   -45.2553 -45.2552 -45.2541 -45.1989 -45.1981 -45.1976 -45.1969 -45.1858
   -45.1856 -45.1848 -45.1846 -45.1842 -45.1836 -31.0924 -31.0618 -31.0531
   -31.0521 -30.9368 -30.9286 -30.8999 -30.8315 -30.8229 -28.4991 -28.4960
   -28.4804 -28.4790 -28.4629 -28.4596 -28.4495 -28.4472 -28.3557 -28.3551
   -28.3238 -28.3235 -24.7413 -24.7404 -24.6641  15.4751  16.0809  16.1658
    16.5818  16.6109  16.7597  16.8104  16.9834  17.0697  17.2130  17.3430
    17.5622  17.7019  17.7708  17.8027  17.9976  18.1988  18.2560  18.5755
    18.7234  18.8611  18.9667  19.0092  19.0716  19.1668  19.2242  19.3694
    19.6931  19.8577  19.9830  20.0157  20.2319  20.6254  20.6755  20.7528
    20.9863  21.0889  21.2358  21.2801  21.4787  21.4886  21.8522  22.2200
    22.4310  22.5266  25.1755  26.2203  27.3311  28.6021  30.7716  31.3565
    32.2774  32.4428  33.1345  33.4404  33.7792  33.9149  34.4790  35.3698

          k = 0.2667-0.2135 0.0961 ( 16291 PWs)   bands (ev):

   -76.9038 -76.8231 -76.8193 -62.7287 -62.7280 -62.7030 -62.7019 -56.8674
   -45.3413 -45.3393 -45.2949 -45.2878 -45.2832 -45.2754 -45.2752 -45.2563
   -45.2553 -45.2552 -45.2541 -45.1989 -45.1981 -45.1976 -45.1969 -45.1858
   -45.1856 -45.1848 -45.1846 -45.1842 -45.1836 -31.0924 -31.0618 -31.0531
   -31.0521 -30.9369 -30.9286 -30.8999 -30.8315 -30.8229 -28.4981 -28.4971
   -28.4805 -28.4787 -28.4629 -28.4597 -28.4489 -28.4476 -28.3557 -28.3551
   -28.3237 -28.3235 -24.7413 -24.7404 -24.6641  15.5150  15.9648  16.2269
    16.4463  16.7294  16.8059  16.8571  16.9766  17.0561  17.2427  17.3646
    17.3868  17.6818  17.7808  17.9188  18.0360  18.2266  18.3470  18.4189
    18.7126  18.7671  18.9380  19.0013  19.0827  19.1171  19.2717  19.4907
    19.6290  19.8187  20.0323  20.1264  20.3199  20.5232  20.6434  20.7372
    20.9453  21.0387  21.2624  21.3212  21.4275  21.4812  21.5937  22.2685
    22.5364  23.2422  24.2876  26.2393  27.2948  29.7656  30.3234  31.2874
    31.9777  32.5353  32.7365  33.1556  33.8287  34.4672  34.6008  35.2442

          k = 0.2386-0.2636-0.0961 ( 16283 PWs)   bands (ev):

   -76.9038 -76.8231 -76.8193 -62.7287 -62.7280 -62.7030 -62.7019 -56.8674
   -45.3413 -45.3393 -45.2949 -45.2878 -45.2832 -45.2754 -45.2752 -45.2563
   -45.2553 -45.2552 -45.2541 -45.1989 -45.1981 -45.1976 -45.1969 -45.1858
   -45.1856 -45.1848 -45.1846 -45.1842 -45.1836 -31.0924 -31.0618 -31.0529
   -31.0524 -30.9369 -30.9285 -30.8999 -30.8315 -30.8229 -28.4992 -28.4958
   -28.4805 -28.4790 -28.4620 -28.4607 -28.4488 -28.4476 -28.3557 -28.3551
   -28.3237 -28.3235 -24.7413 -24.7404 -24.6641  15.5118  15.9638  16.1688
    16.5416  16.7449  16.8099  16.9055  16.9686  17.0585  17.2362  17.2787
    17.3871  17.5608  17.8879  17.9157  17.9834  18.2277  18.4862  18.4961
    18.6112  18.7262  18.8920  19.0408  19.0950  19.1572  19.2793  19.3255
    19.6181  19.9508  20.0627  20.1297  20.3005  20.4376  20.6044  20.7723
    20.8786  21.1314  21.2023  21.2963  21.3635  21.4451  21.6775  22.2644
    22.8945  23.4856  24.1637  25.1257  28.3612  29.6501  30.6716  31.0725
    31.9685  32.3784  32.7839  33.1921  33.4893  33.5764  34.8929  35.5692

          k = 0.2526-0.1394 0.0000 ( 16263 PWs)   bands (ev):

   -76.9038 -76.8264 -76.8160 -62.7305 -62.7299 -62.7011 -62.7001 -56.8674
   -45.3413 -45.3393 -45.2949 -45.2878 -45.2832 -45.2754 -45.2752 -45.2565
   -45.2555 -45.2552 -45.2537 -45.1989 -45.1980 -45.1976 -45.1969 -45.1858
   -45.1856 -45.1849 -45.1846 -45.1842 -45.1836 -31.1145 -31.0624 -31.0525
   -31.0048 -30.9822 -30.9286 -30.8800 -30.8389 -30.8155 -28.5026 -28.5019
   -28.4923 -28.4903 -28.4610 -28.4587 -28.4178 -28.4171 -28.3891 -28.3879
   -28.3066 -28.3063 -24.7422 -24.7392 -24.6641  14.9376  15.8911  16.5682
    16.6501  16.7424  16.7888  16.8278  16.8402  17.3058  17.4680  17.5217
    17.5620  17.6488  17.7033  17.8120  18.0310  18.2507  18.3231  18.6676
    18.7199  18.8116  18.8782  18.9771  18.9970  19.3064  19.3487  19.3657
    19.5604  19.6552  19.7635  19.9373  20.0520  20.1184  20.1957  20.6183
    20.8360  20.9843  21.0817  21.4244  21.5681  21.6808  21.7337  21.8575
    23.7270  23.9400  26.7090  27.1333  27.2482  27.8301  29.3181  30.2657
    30.9410  30.9800  33.7188  33.7696  33.8070  34.8326  34.8838  35.0771

          k = 0.2667-0.1144 0.0961 ( 16271 PWs)   bands (ev):

   -76.9038 -76.8264 -76.8161 -62.7305 -62.7299 -62.7011 -62.7001 -56.8674
   -45.3413 -45.3393 -45.2949 -45.2878 -45.2832 -45.2754 -45.2752 -45.2565
   -45.2555 -45.2552 -45.2537 -45.1989 -45.1980 -45.1976 -45.1969 -45.1858
   -45.1856 -45.1849 -45.1846 -45.1842 -45.1836 -31.1145 -31.0624 -31.0525
   -31.0048 -30.9822 -30.9286 -30.8800 -30.8389 -30.8155 -28.5034 -28.5008
   -28.4929 -28.4900 -28.4610 -28.4588 -28.4180 -28.4168 -28.3892 -28.3878
   -28.3066 -28.3063 -24.7422 -24.7392 -24.6641  15.0213  15.6598  16.5775
    16.6776  16.7311  16.8420  16.8934  17.0486  17.2205  17.3720  17.4399
    17.5589  17.6779  17.7427  17.9674  18.0331  18.1984  18.4099  18.4917
    18.6033  18.7183  18.7613  19.0219  19.0779  19.3147  19.3212  19.3947
    19.5127  19.7189  19.9144  19.9972  20.0991  20.3088  20.3849  20.4517
    20.5007  20.6864  21.1109  21.3199  21.4631  21.6034  21.7371  23.0581
    23.6642  24.3456  24.9581  25.5365  28.9889  29.2058  29.9113  30.3475
    30.8693  31.3974  32.6135  32.7522  32.9824  33.7335  34.0858  34.8846

          k = 0.2386-0.1645-0.0961 ( 16260 PWs)   bands (ev):

   -76.9038 -76.8264 -76.8160 -62.7305 -62.7299 -62.7011 -62.7001 -56.8674
   -45.3413 -45.3393 -45.2949 -45.2878 -45.2832 -45.2754 -45.2752 -45.2565
   -45.2555 -45.2552 -45.2537 -45.1989 -45.1980 -45.1976 -45.1969 -45.1858
   -45.1856 -45.1849 -45.1846 -45.1842 -45.1836 -31.1145 -31.0624 -31.0525
   -31.0048 -30.9822 -30.9286 -30.8800 -30.8389 -30.8155 -28.5033 -28.5011
   -28.4928 -28.4899 -28.4606 -28.4592 -28.4178 -28.4170 -28.3893 -28.3877
   -28.3065 -28.3063 -24.7422 -24.7392 -24.6641  15.0038  15.7014  16.5778
    16.6299  16.7148  16.8438  16.9504  17.0831  17.2025  17.3111  17.4342
    17.5885  17.6347  17.8182  17.9297  17.9966  18.2091  18.4124  18.5089
    18.6254  18.7214  18.7760  19.0728  19.0946  19.1910  19.3136  19.3974
    19.4584  19.8394  19.9057  20.0175  20.1294  20.1378  20.4397  20.5063
    20.5758  20.6120  21.0701  21.3284  21.4703  21.6016  21.7378  23.1030
    23.6715  24.3773  24.9008  25.4882  28.9856  29.2623  29.9288  30.3557
    30.8896  31.3401  32.5695  32.7570  32.9910  33.7621  34.1144  34.8726

          k = 0.2526-0.0403 0.0000 ( 16295 PWs)   bands (ev):

   -76.9038 -76.8283 -76.8142 -62.7321 -62.7316 -62.6994 -62.6985 -56.8674
   -45.3413 -45.3393 -45.2949 -45.2878 -45.2832 -45.2754 -45.2752 -45.2566
   -45.2557 -45.2550 -45.2535 -45.1989 -45.1980 -45.1976 -45.1970 -45.1858
   -45.1856 -45.1850 -45.1845 -45.1842 -45.1836 -31.1197 -31.0629 -31.0522
   -31.0160 -30.9679 -30.9287 -30.8777 -30.8432 -30.8112 -28.5057 -28.5045
   -28.4933 -28.4907 -28.4591 -28.4576 -28.4271 -28.4264 -28.3814 -28.3798
   -28.3030 -28.3028 -24.7422 -24.7389 -24.6641  14.6665  15.7805  16.6311
    16.7319  16.7597  16.8356  16.8767  17.1044  17.2535  17.3722  17.4166
    17.6394  17.7249  17.7836  17.9243  18.0503  18.2647  18.4201  18.4631
    18.6087  18.6426  18.8166  18.8456  19.0319  19.2656  19.2873  19.4244
    19.4748  19.6094  19.7566  19.9568  20.0430  20.2167  20.3600  20.4702
    20.9029  20.9707  21.0772  21.2099  21.5029  21.5479  21.6225  21.8824
    25.2912  25.6744  25.9649  27.2966  27.5289  28.0421  29.1016  29.7821
    29.8391  30.2630  31.7925  32.5239  33.9015  34.6463  34.9140  35.4325

          k = 0.2667-0.0153 0.0961 ( 16278 PWs)   bands (ev):

   -76.9038 -76.8283 -76.8142 -62.7321 -62.7316 -62.6994 -62.6985 -56.8674
   -45.3413 -45.3393 -45.2949 -45.2878 -45.2832 -45.2754 -45.2752 -45.2566
   -45.2557 -45.2550 -45.2535 -45.1989 -45.1980 -45.1976 -45.1970 -45.1858
   -45.1856 -45.1850 -45.1845 -45.1842 -45.1836 -31.1197 -31.0629 -31.0522
   -31.0161 -30.9680 -30.9286 -30.8777 -30.8432 -30.8112 -28.5063 -28.5038
   -28.4933 -28.4909 -28.4590 -28.4577 -28.4270 -28.4266 -28.3811 -28.3800
   -28.3029 -28.3028 -24.7422 -24.7389 -24.6641  14.7971  15.4512  16.6104
    16.6212  16.8151  16.9673  17.0948  17.1652  17.3717  17.4972  17.5385
    17.5702  17.6986  17.7184  17.7335  17.9395  18.0354  18.4491  18.4932
    18.5725  18.6838  18.7782  18.8359  19.0949  19.2301  19.3452  19.4051
    19.5788  19.7377  19.8008  19.9602  20.1173  20.1592  20.2840  20.5248
    20.6650  20.8090  21.1315  21.1785  21.3504  21.4618  21.6021  23.1965
    24.0728  25.1796  26.4087  26.7891  27.2603  28.9138  29.2637  30.2348
    30.5362  31.3655  31.7133  32.1054  32.5348  33.3260  34.5481  35.6919

          k = 0.2386-0.0654-0.0961 ( 16274 PWs)   bands (ev):

   -76.9038 -76.8283 -76.8142 -62.7321 -62.7316 -62.6994 -62.6985 -56.8674
   -45.3413 -45.3393 -45.2949 -45.2878 -45.2832 -45.2754 -45.2752 -45.2566
   -45.2557 -45.2550 -45.2535 -45.1989 -45.1980 -45.1976 -45.1970 -45.1858
   -45.1856 -45.1850 -45.1845 -45.1842 -45.1836 -31.1197 -31.0629 -31.0522
   -31.0161 -30.9679 -30.9286 -30.8777 -30.8432 -30.8112 -28.5059 -28.5043
   -28.4935 -28.4905 -28.4591 -28.4577 -28.4270 -28.4266 -28.3813 -28.3799
   -28.3030 -28.3028 -24.7422 -24.7389 -24.6641  14.7188  15.6258  16.6368
    16.6641  16.7213  16.9890  17.0115  17.1232  17.2306  17.4419  17.5052
    17.5882  17.6540  17.7476  17.9458  18.0014  18.1189  18.3978  18.4990
    18.5309  18.7281  18.7334  18.9706  19.0499  19.1165  19.4086  19.4726
    19.4949  19.6768  19.7907  19.8770  20.0564  20.1481  20.5178  20.5515
    20.6167  20.9075  20.9803  21.2577  21.4470  21.4897  21.5895  22.4842
    24.9789  25.2814  25.9023  27.2163  27.4858  28.6125  29.1333  29.5528
    30.4530  30.7422  31.5882  32.9359  33.1864  33.5323  34.8668  35.4350

          k = 0.3537 0.0625 0.0000 ( 16298 PWs)   bands (ev):

   -76.9007 -76.8227 -76.8135 -62.7254 -62.7248 -62.6969 -62.6959 -56.8603
   -45.3411 -45.3397 -45.2948 -45.2878 -45.2832 -45.2757 -45.2750 -45.2562
   -45.2559 -45.2549 -45.2542 -45.1989 -45.1978 -45.1977 -45.1968 -45.1859
   -45.1856 -45.1849 -45.1847 -45.1844 -45.1835 -31.1222 -31.0999 -31.0553
   -31.0497 -31.0473 -30.9215 -30.9122 -30.8305 -30.8098 -28.4960 -28.4952
   -28.4895 -28.4866 -28.4580 -28.4562 -28.4520 -28.4510 -28.4363 -28.4340
   -28.3307 -28.3305 -24.8213 -24.7329 -24.6568  15.6903  16.2984  16.6826
    16.7503  16.8718  16.9551  17.0832  17.1727  17.2899  17.3080  17.4217
    17.5588  17.5959  17.7289  17.8845  17.9252  18.0452  18.2090  18.5077
    18.5570  18.6671  18.6718  18.8328  18.9835  19.0247  19.5124  19.5746
    19.6762  19.7181  20.1660  20.1968  20.4133  20.4972  20.9094  21.0088
    21.0697  21.1687  21.2539  21.3356  21.4155  21.5007  21.7533  23.2202
    25.9982  26.5069  26.8047  27.1258  27.7605  28.5780  29.2204  29.6825
    29.8636  30.5535  31.8490  32.1019  32.6248  33.0578  33.6287  34.3439

          k = 0.3677 0.0875 0.0961 ( 16284 PWs)   bands (ev):

   -76.9007 -76.8227 -76.8135 -62.7254 -62.7248 -62.6969 -62.6959 -56.8603
   -45.3411 -45.3397 -45.2948 -45.2878 -45.2832 -45.2757 -45.2750 -45.2562
   -45.2559 -45.2549 -45.2542 -45.1989 -45.1978 -45.1977 -45.1968 -45.1859
   -45.1856 -45.1849 -45.1847 -45.1844 -45.1835 -31.1222 -31.0999 -31.0553
   -31.0497 -31.0473 -30.9215 -30.9123 -30.8305 -30.8098 -28.4960 -28.4950
   -28.4890 -28.4873 -28.4581 -28.4561 -28.4527 -28.4502 -28.4362 -28.4342
   -28.3306 -28.3305 -24.8213 -24.7329 -24.6568  15.7262  16.1496  16.7486
    16.7869  16.9624  17.0504  17.0931  17.1860  17.2458  17.2758  17.3614
    17.5268  17.6102  17.7052  17.7586  17.9501  18.0875  18.2495  18.3482
    18.4689  18.6764  18.7563  18.8923  19.0159  19.2658  19.3962  19.5061
    19.7383  19.8406  19.9980  20.2555  20.5347  20.5585  20.7069  20.9436
    21.0495  21.1771  21.2514  21.2684  21.3582  21.4857  21.5883  24.4366
    25.0429  26.0173  26.6344  27.5663  28.0921  28.1721  28.6814  30.1132
    30.4487  31.2463  31.3742  32.2421  33.2114  33.3227  33.5213  33.7751

          k = 0.3397 0.0374-0.0961 ( 16293 PWs)   bands (ev):

   -76.9007 -76.8227 -76.8135 -62.7254 -62.7248 -62.6969 -62.6959 -56.8603
   -45.3411 -45.3397 -45.2948 -45.2878 -45.2832 -45.2757 -45.2750 -45.2562
   -45.2559 -45.2549 -45.2542 -45.1989 -45.1978 -45.1977 -45.1968 -45.1859
   -45.1856 -45.1849 -45.1847 -45.1844 -45.1835 -31.1222 -31.0999 -31.0553
   -31.0497 -31.0473 -30.9215 -30.9122 -30.8305 -30.8098 -28.4965 -28.4949
   -28.4888 -28.4871 -28.4576 -28.4565 -28.4524 -28.4506 -28.4357 -28.4347
   -28.3306 -28.3305 -24.8213 -24.7329 -24.6568  15.7026  16.2957  16.6524
    16.7557  16.8683  16.9002  17.0858  17.1722  17.2855  17.3750  17.4470
    17.4879  17.6753  17.7416  17.8631  17.9100  18.0438  18.3356  18.4682
    18.5834  18.6217  18.6559  18.8448  18.8786  19.0251  19.4949  19.6096
    19.6778  19.7223  20.1202  20.1721  20.3116  20.6924  20.8513  20.9819
    21.1266  21.2342  21.2611  21.3476  21.4155  21.5331  21.9243  22.7560
    26.0789  26.5702  27.1213  27.4380  27.5235  28.7111  28.9407  29.4496
    29.7902  30.6691  31.5787  31.9587  32.6040  33.0612  33.9771  33.9896

          k = 0.3537 0.1616 0.0000 ( 16282 PWs)   bands (ev):

   -76.9007 -76.8215 -76.8147 -62.7247 -62.7241 -62.6977 -62.6966 -56.8603
   -45.3411 -45.3398 -45.2948 -45.2878 -45.2832 -45.2757 -45.2750 -45.2561
   -45.2557 -45.2550 -45.2544 -45.1990 -45.1979 -45.1976 -45.1968 -45.1860
   -45.1856 -45.1849 -45.1846 -45.1844 -45.1835 -31.1321 -31.1227 -31.0828
   -31.0554 -30.9907 -30.9215 -30.9029 -30.8278 -30.8126 -28.5164 -28.5150
   -28.4928 -28.4905 -28.4742 -28.4737 -28.4574 -28.4553 -28.3954 -28.3949
   -28.3249 -28.3246 -24.8202 -24.7323 -24.6568  15.5123  16.1030  16.3026
    16.4211  16.5216  16.7192  16.8322  16.9194  17.0909  17.1190  17.2308
    17.4314  17.6842  17.8992  18.0510  18.1571  18.2205  18.4204  18.6707
    18.8093  18.8845  19.0282  19.2761  19.3317  19.3886  19.4400  19.7274
    19.8414  20.2323  20.2984  20.4640  20.6882  20.6999  20.8290  20.8620
    20.9759  21.2105  21.2640  21.4296  21.5373  21.6082  21.6449  23.7374
    24.5399  25.3453  26.1425  26.3010  27.1837  28.7729  29.6812  30.4012
    30.6324  31.1852  31.2901  32.2687  32.3467  32.8181  33.7729  34.0782

          k = 0.3677 0.1866 0.0961 ( 16287 PWs)   bands (ev):

   -76.9007 -76.8215 -76.8147 -62.7247 -62.7241 -62.6977 -62.6966 -56.8603
   -45.3411 -45.3398 -45.2948 -45.2878 -45.2832 -45.2757 -45.2750 -45.2561
   -45.2557 -45.2550 -45.2544 -45.1990 -45.1979 -45.1976 -45.1968 -45.1860
   -45.1856 -45.1849 -45.1846 -45.1844 -45.1835 -31.1321 -31.1227 -31.0828
   -31.0554 -30.9907 -30.9215 -30.9029 -30.8278 -30.8126 -28.5164 -28.5150
   -28.4924 -28.4909 -28.4749 -28.4728 -28.4576 -28.4551 -28.3954 -28.3949
   -28.3249 -28.3246 -24.8202 -24.7323 -24.6568  15.5565  15.9789  16.3077
    16.3804  16.6268  16.7417  16.8284  16.9738  17.0069  17.1901  17.2339
    17.4553  17.6950  17.9040  17.9691  18.0732  18.1924  18.4399  18.6389
    18.8095  18.9947  19.0452  19.3007  19.3260  19.3855  19.4600  19.7450
    19.9060  20.1450  20.3053  20.4016  20.6839  20.7535  20.8034  20.8655
    20.9981  21.1626  21.2385  21.3735  21.5278  21.5722  21.6871  24.0664
    24.5711  25.3212  25.7479  26.2743  27.2096  28.7724  29.8639  30.3269
    30.5671  31.4117  31.5938  32.1190  32.3170  32.9462  33.6051  33.8609

          k = 0.3397 0.1365-0.0961 ( 16310 PWs)   bands (ev):

   -76.9007 -76.8215 -76.8147 -62.7247 -62.7241 -62.6977 -62.6966 -56.8603
   -45.3411 -45.3398 -45.2948 -45.2878 -45.2832 -45.2757 -45.2750 -45.2561
   -45.2557 -45.2550 -45.2544 -45.1990 -45.1979 -45.1976 -45.1968 -45.1860
   -45.1856 -45.1849 -45.1846 -45.1844 -45.1835 -31.1321 -31.1227 -31.0828
   -31.0554 -30.9907 -30.9215 -30.9029 -30.8278 -30.8126 -28.5168 -28.5146
   -28.4933 -28.4899 -28.4750 -28.4729 -28.4571 -28.4557 -28.3952 -28.3951
   -28.3249 -28.3245 -24.8202 -24.7323 -24.6568  15.5291  16.0415  16.4310
    16.4468  16.5251  16.7077  16.7268  16.8710  17.0549  17.0958  17.2120
    17.4649  17.6749  18.0342  18.0586  18.1770  18.3477  18.4809  18.5784
    18.7798  18.8354  18.8698  19.0037  19.5026  19.5537  19.6183  19.6684
    19.8318  19.9296  20.3323  20.4315  20.5748  20.7466  20.9303  21.0717
    21.0896  21.1752  21.3507  21.4781  21.5903  21.6550  21.9758  22.4786
    24.6907  24.8860  27.0238  27.1964  28.0049  28.4493  28.5847  29.3303
    30.9057  31.0347  31.3357  32.0919  32.1246  32.9805  33.3038  35.2106

          k = 0.3537 0.2607 0.0000 ( 16298 PWs)   bands (ev):

   -76.9007 -76.8195 -76.8167 -62.7239 -62.7232 -62.6985 -62.6974 -56.8603
   -45.3411 -45.3398 -45.2948 -45.2878 -45.2832 -45.2757 -45.2750 -45.2561
   -45.2556 -45.2551 -45.2545 -45.1990 -45.1980 -45.1975 -45.1968 -45.1860
   -45.1857 -45.1848 -45.1846 -45.1844 -45.1835 -31.1384 -31.1233 -31.1192
   -31.0556 -30.9410 -30.9215 -30.9091 -30.8231 -30.8173 -28.5227 -28.5216
   -28.5018 -28.5009 -28.4911 -28.4886 -28.4580 -28.4560 -28.3559 -28.3557
   -28.3309 -28.3306 -24.8192 -24.7319 -24.6568  15.5277  15.7935  16.0412
    16.1845  16.4053  16.4436  16.5869  16.7852  16.8352  16.9514  17.1610
    17.2579  17.5780  17.9595  18.1625  18.2398  18.3903  18.5494  18.8757
    19.0646  19.1646  19.1911  19.2711  19.4755  19.7017  19.8779  20.1074
    20.1298  20.2327  20.5736  20.8127  20.8402  20.9788  21.0598  21.1155
    21.2541  21.3443  21.3716  21.5824  21.6221  21.7193  21.7608  22.8780
    23.6029  24.2662  24.6441  26.0572  28.0083  28.8133  29.3994  29.7945
    30.6233  31.4255  31.4446  32.1138  32.7934  32.8524  34.4733  34.7278

          k = 0.3677 0.2858 0.0961 ( 16297 PWs)   bands (ev):

   -76.9007 -76.8195 -76.8167 -62.7239 -62.7232 -62.6985 -62.6974 -56.8603
   -45.3411 -45.3398 -45.2948 -45.2878 -45.2832 -45.2757 -45.2750 -45.2561
   -45.2556 -45.2551 -45.2545 -45.1990 -45.1980 -45.1975 -45.1968 -45.1860
   -45.1857 -45.1848 -45.1846 -45.1844 -45.1835 -31.1384 -31.1233 -31.1192
   -31.0556 -30.9410 -30.9215 -30.9091 -30.8231 -30.8173 -28.5228 -28.5215
   -28.5021 -28.5008 -28.4908 -28.4887 -28.4581 -28.4560 -28.3559 -28.3557
   -28.3310 -28.3306 -24.8192 -24.7319 -24.6568  15.5634  15.8513  15.9179
    16.1171  16.3721  16.4818  16.7679  16.7979  16.8627  16.9335  17.0769
    17.1469  17.7616  17.9142  18.1302  18.1492  18.5068  18.6174  18.8059
    18.8939  19.0687  19.2753  19.3598  19.3837  19.7187  19.8469  20.1249
    20.3055  20.3807  20.5065  20.8259  20.8968  20.9524  21.0537  21.1046
    21.2063  21.3181  21.4607  21.5553  21.6046  21.6870  21.7379  22.9961
    23.2529  24.0378  24.7912  26.7846  27.6705  28.8511  29.2618  29.7208
    30.3658  31.5848  31.6158  31.8383  32.8088  32.9520  34.6794  34.7848

          k = 0.3397 0.2357-0.0961 ( 16304 PWs)   bands (ev):

   -76.9007 -76.8195 -76.8167 -62.7239 -62.7232 -62.6985 -62.6974 -56.8603
   -45.3411 -45.3398 -45.2948 -45.2878 -45.2832 -45.2757 -45.2750 -45.2561
   -45.2556 -45.2551 -45.2545 -45.1990 -45.1980 -45.1975 -45.1968 -45.1860
   -45.1857 -45.1848 -45.1846 -45.1844 -45.1835 -31.1384 -31.1234 -31.1191
   -31.0556 -30.9410 -30.9215 -30.9091 -30.8231 -30.8173 -28.5232 -28.5210
   -28.5024 -28.5005 -28.4910 -28.4887 -28.4578 -28.4563 -28.3558 -28.3558
   -28.3310 -28.3305 -24.8192 -24.7319 -24.6568  15.5156  15.8562  15.9701
    16.2780  16.3472  16.4495  16.6389  16.7776  16.8079  16.8819  17.0357
    17.3147  17.6588  18.0247  18.1880  18.2810  18.4212  18.6755  18.7185
    18.8260  18.9812  19.1767  19.3682  19.6241  19.7407  19.8200  19.9799
    20.2661  20.3272  20.6233  20.7215  20.9465  20.9683  21.1351  21.1505
    21.1683  21.3385  21.5559  21.5710  21.5882  21.6518  22.1754  22.8748
    22.9458  23.2310  25.9247  26.5306  28.1629  28.7250  28.9495  29.3245
    29.9006  31.7384  32.0934  32.2166  32.5518  33.2502  33.7616  34.6678

          k = 0.3537-0.2349 0.0000 ( 16305 PWs)   bands (ev):

   -76.9007 -76.8194 -76.8168 -62.7239 -62.7232 -62.6985 -62.6974 -56.8603
   -45.3411 -45.3398 -45.2948 -45.2878 -45.2832 -45.2757 -45.2750 -45.2561
   -45.2556 -45.2551 -45.2545 -45.1990 -45.1981 -45.1975 -45.1968 -45.1859
   -45.1857 -45.1848 -45.1846 -45.1843 -45.1835 -31.1387 -31.1234 -31.1187
   -31.0556 -30.9396 -30.9215 -30.9106 -30.8230 -30.8174 -28.5226 -28.5204
   -28.5031 -28.5011 -28.4907 -28.4885 -28.4579 -28.4562 -28.3558 -28.3555
   -28.3313 -28.3309 -24.8192 -24.7319 -24.6568  15.5182  15.8602  15.9634
    16.2783  16.3328  16.4668  16.6387  16.7889  16.8020  16.8785  17.0331
    17.3245  17.6505  18.0385  18.1746  18.2815  18.4152  18.6738  18.7230
    18.8215  18.9844  19.2005  19.3503  19.6419  19.7595  19.7943  19.9522
    20.2874  20.3157  20.6172  20.7353  20.9493  20.9793  21.1202  21.1500
    21.1664  21.3424  21.5604  21.5720  21.5832  21.6527  22.1952  22.8413
    22.9454  23.2123  26.0116  26.4380  28.2373  28.7306  28.9177  29.2772
    29.8941  31.7713  32.0826  32.2365  32.5379  33.3086  33.7275  34.6847

          k = 0.3677-0.2098 0.0961 ( 16303 PWs)   bands (ev):

   -76.9007 -76.8194 -76.8168 -62.7239 -62.7232 -62.6985 -62.6974 -56.8603
   -45.3411 -45.3398 -45.2948 -45.2878 -45.2832 -45.2757 -45.2750 -45.2561
   -45.2556 -45.2551 -45.2545 -45.1990 -45.1981 -45.1975 -45.1968 -45.1859
   -45.1857 -45.1848 -45.1846 -45.1843 -45.1835 -31.1387 -31.1233 -31.1188
   -31.0556 -30.9396 -30.9215 -30.9106 -30.8230 -30.8174 -28.5221 -28.5209
   -28.5027 -28.5015 -28.4906 -28.4885 -28.4581 -28.4560 -28.3558 -28.3554
   -28.3313 -28.3310 -24.8192 -24.7319 -24.6568  15.5650  15.8472  15.9231
    16.1125  16.3792  16.4818  16.7623  16.7929  16.8669  16.9272  17.0886
    17.1594  17.7353  17.9370  18.1212  18.1472  18.5103  18.5899  18.8088
    18.9311  19.0752  19.2776  19.3338  19.4078  19.7247  19.8310  20.1245
    20.2834  20.4032  20.4843  20.8232  20.8816  20.9677  21.0578  21.1064
    21.2004  21.3151  21.4656  21.5666  21.5914  21.6833  21.7401  22.9838
    23.2703  24.1312  24.7113  26.6748  27.7261  28.8679  29.2766  29.7417
    30.3977  31.5338  31.6517  31.7989  32.8398  32.9620  34.6831  34.7584

          k = 0.3397-0.2599-0.0961 ( 16298 PWs)   bands (ev):

   -76.9007 -76.8194 -76.8168 -62.7239 -62.7232 -62.6985 -62.6974 -56.8603
   -45.3411 -45.3398 -45.2948 -45.2878 -45.2832 -45.2757 -45.2750 -45.2561
   -45.2556 -45.2551 -45.2545 -45.1990 -45.1981 -45.1975 -45.1968 -45.1859
   -45.1857 -45.1848 -45.1846 -45.1843 -45.1835 -31.1387 -31.1233 -31.1188
   -31.0556 -30.9396 -30.9215 -30.9106 -30.8230 -30.8174 -28.5222 -28.5208
   -28.5026 -28.5015 -28.4908 -28.4884 -28.4580 -28.4561 -28.3558 -28.3554
   -28.3312 -28.3310 -24.8192 -24.7319 -24.6568  15.5261  15.7942  16.0486
    16.1920  16.3937  16.4435  16.5889  16.7795  16.8440  16.9612  17.1471
    17.2357  17.6011  17.9488  18.1726  18.2528  18.4104  18.5512  18.8547
    19.0583  19.1476  19.1967  19.2578  19.4554  19.7085  19.8795  20.1110
    20.1656  20.2544  20.5482  20.8217  20.8403  20.9745  21.0553  21.1101
    21.2521  21.3472  21.3806  21.5856  21.6246  21.7083  21.7671  22.8723
    23.5659  24.3251  24.5458  26.1616  27.9696  28.7747  29.3919  29.8042
    30.6337  31.4528  31.4884  32.0345  32.8000  32.8668  34.5472  34.7533

          k = 0.3537-0.1358 0.0000 ( 16304 PWs)   bands (ev):

   -76.9007 -76.8214 -76.8148 -62.7247 -62.7240 -62.6977 -62.6967 -56.8603
   -45.3411 -45.3398 -45.2948 -45.2878 -45.2832 -45.2757 -45.2750 -45.2561
   -45.2557 -45.2550 -45.2544 -45.1989 -45.1980 -45.1975 -45.1968 -45.1859
   -45.1857 -45.1848 -45.1847 -45.1843 -45.1835 -31.1324 -31.1227 -31.0822
   -31.0554 -30.9897 -30.9215 -30.9042 -30.8277 -30.8127 -28.5159 -28.5137
   -28.4939 -28.4905 -28.4749 -28.4726 -28.4572 -28.4557 -28.3954 -28.3950
   -28.3253 -28.3249 -24.8202 -24.7324 -24.6568  15.5322  16.0363  16.4340
    16.4510  16.5164  16.7082  16.7368  16.8788  17.0527  17.1012  17.2109
    17.4580  17.6785  18.0218  18.0711  18.1859  18.3477  18.4632  18.5821
    18.7819  18.8357  18.8686  19.0173  19.4962  19.5466  19.6249  19.6696
    19.8116  19.9523  20.3289  20.4281  20.5776  20.7460  20.9266  21.0634
    21.0878  21.1871  21.3443  21.4730  21.5816  21.6542  21.9418  22.5280
    24.6839  24.8733  26.9984  27.2017  27.9112  28.5443  28.5787  29.3397
    30.8864  31.0612  31.3693  32.0623  32.1695  32.9421  33.3681  35.1537

          k = 0.3677-0.1107 0.0961 ( 16291 PWs)   bands (ev):

   -76.9007 -76.8214 -76.8148 -62.7247 -62.7240 -62.6977 -62.6967 -56.8603
   -45.3411 -45.3398 -45.2948 -45.2878 -45.2832 -45.2757 -45.2750 -45.2561
   -45.2557 -45.2550 -45.2544 -45.1989 -45.1980 -45.1975 -45.1968 -45.1859
   -45.1857 -45.1848 -45.1847 -45.1843 -45.1835 -31.1324 -31.1227 -31.0822
   -31.0554 -30.9897 -30.9215 -30.9042 -30.8277 -30.8126 -28.5155 -28.5142
   -28.4930 -28.4915 -28.4747 -28.4726 -28.4576 -28.4552 -28.3956 -28.3949
   -28.3252 -28.3250 -24.8202 -24.7324 -24.6568  15.5565  15.9841  16.3036
    16.3768  16.6410  16.7394  16.8286  16.9696  16.9962  17.2079  17.2418
    17.4651  17.6868  17.8853  17.9867  18.0558  18.1827  18.4477  18.6619
    18.8121  18.9987  19.0495  19.2806  19.3186  19.3895  19.4696  19.7354
    19.9200  20.1294  20.3068  20.4059  20.6762  20.7457  20.8041  20.8643
    21.0044  21.1532  21.2312  21.3756  21.5241  21.5658  21.6875  24.1568
    24.5585  25.3477  25.6467  26.2122  27.1997  28.7886  29.8811  30.3294
    30.6309  31.4333  31.6185  32.1518  32.3111  33.0043  33.5117  33.8081

          k = 0.3397-0.1608-0.0961 ( 16288 PWs)   bands (ev):

   -76.9007 -76.8214 -76.8148 -62.7247 -62.7240 -62.6977 -62.6967 -56.8603
   -45.3411 -45.3398 -45.2948 -45.2878 -45.2832 -45.2757 -45.2750 -45.2561
   -45.2557 -45.2550 -45.2544 -45.1989 -45.1980 -45.1975 -45.1968 -45.1859
   -45.1857 -45.1848 -45.1847 -45.1843 -45.1835 -31.1324 -31.1227 -31.0822
   -31.0554 -30.9897 -30.9215 -30.9042 -30.8277 -30.8126 -28.5156 -28.5140
   -28.4933 -28.4911 -28.4740 -28.4734 -28.4574 -28.4554 -28.3956 -28.3949
   -28.3252 -28.3250 -24.8202 -24.7324 -24.6568  15.5120  16.1097  16.3094
    16.4265  16.5115  16.7195  16.8358  16.9168  17.0793  17.1185  17.2381
    17.4160  17.7022  17.8847  18.0664  18.1870  18.2256  18.4209  18.6650
    18.8005  18.8699  19.0096  19.2759  19.3424  19.3898  19.4438  19.7316
    19.8277  20.2433  20.2782  20.4660  20.6750  20.7143  20.8341  20.8615
    20.9903  21.2120  21.2737  21.4264  21.5459  21.6123  21.6384  23.6469
    24.5337  25.3021  26.2451  26.3506  27.1791  28.7557  29.6414  30.3689
    30.6291  31.1773  31.2707  32.2570  32.3673  32.8141  33.8047  34.1279

          k = 0.3537-0.0366 0.0000 ( 16288 PWs)   bands (ev):

   -76.9007 -76.8226 -76.8136 -62.7254 -62.7248 -62.6969 -62.6959 -56.8603
   -45.3411 -45.3397 -45.2948 -45.2878 -45.2832 -45.2757 -45.2750 -45.2562
   -45.2559 -45.2549 -45.2542 -45.1989 -45.1979 -45.1976 -45.1968 -45.1859
   -45.1857 -45.1849 -45.1847 -45.1844 -45.1835 -31.1222 -31.1003 -31.0553
   -31.0492 -31.0468 -30.9215 -30.9129 -30.8305 -30.8099 -28.4954 -28.4941
   -28.4891 -28.4881 -28.4574 -28.4564 -28.4522 -28.4504 -28.4362 -28.4350
   -28.3308 -28.3306 -24.8213 -24.7329 -24.6568  15.7046  16.2856  16.6601
    16.7584  16.8747  16.9021  17.0923  17.1716  17.2836  17.3731  17.4508
    17.4808  17.6763  17.7393  17.8583  17.9126  18.0434  18.3268  18.4746
    18.5721  18.6207  18.6599  18.8532  18.8864  19.0323  19.4905  19.6147
    19.6738  19.7163  20.1209  20.1748  20.3186  20.6700  20.8603  20.9970
    21.1192  21.2218  21.2572  21.3407  21.4130  21.5311  21.8891  22.8270
    26.0625  26.5631  27.0657  27.3800  27.5492  28.6986  29.0357  29.5101
    29.7279  30.6708  31.5909  31.9908  32.6354  33.0388  33.9271  34.0702

          k = 0.3677-0.0116 0.0961 ( 16290 PWs)   bands (ev):

   -76.9007 -76.8226 -76.8136 -62.7254 -62.7248 -62.6969 -62.6959 -56.8603
   -45.3411 -45.3397 -45.2948 -45.2878 -45.2832 -45.2757 -45.2750 -45.2562
   -45.2559 -45.2549 -45.2542 -45.1989 -45.1979 -45.1976 -45.1968 -45.1859
   -45.1857 -45.1849 -45.1847 -45.1844 -45.1835 -31.1222 -31.1003 -31.0553
   -31.0492 -31.0468 -30.9215 -30.9129 -30.8305 -30.8098 -28.4950 -28.4940
   -28.4898 -28.4880 -28.4579 -28.4560 -28.4525 -28.4500 -28.4366 -28.4346
   -28.3308 -28.3307 -24.8213 -24.7329 -24.6568  15.7258  16.1516  16.7475
    16.7898  16.9633  17.0574  17.0926  17.1825  17.2397  17.2749  17.3685
    17.5303  17.6087  17.7035  17.7580  17.9480  18.0864  18.2537  18.3464
    18.4722  18.6771  18.7509  18.8972  19.0203  19.2800  19.3749  19.5038
    19.7380  19.8547  19.9808  20.2584  20.5411  20.5669  20.6911  20.9396
    21.0457  21.1821  21.2499  21.2629  21.3641  21.4828  21.5843  24.5295
    24.9460  26.0030  26.6353  27.5733  28.0619  28.1958  28.6694  30.0990
    30.4844  31.2376  31.4696  32.1585  33.2761  33.3469  33.5409  33.7671

          k = 0.3397-0.0617-0.0961 ( 16301 PWs)   bands (ev):

   -76.9007 -76.8226 -76.8136 -62.7254 -62.7248 -62.6969 -62.6959 -56.8603
   -45.3411 -45.3397 -45.2948 -45.2878 -45.2832 -45.2757 -45.2750 -45.2562
   -45.2559 -45.2549 -45.2542 -45.1989 -45.1979 -45.1976 -45.1968 -45.1859
   -45.1857 -45.1849 -45.1847 -45.1844 -45.1835 -31.1222 -31.1003 -31.0553
   -31.0492 -31.0468 -30.9215 -30.9129 -30.8305 -30.8099 -28.4951 -28.4943
   -28.4898 -28.4876 -28.4579 -28.4560 -28.4518 -28.4508 -28.4368 -28.4345
   -28.3308 -28.3306 -24.8213 -24.7329 -24.6568  15.6893  16.3108  16.6753
    16.7461  16.8697  16.9474  17.0802  17.1746  17.2940  17.3201  17.4213
    17.5571  17.5957  17.7371  17.8857  17.9191  18.0550  18.2105  18.5148
    18.5662  18.6569  18.6693  18.8315  18.9862  19.0076  19.5118  19.5692
    19.6792  19.7133  20.1581  20.1903  20.4012  20.5220  20.8977  21.0141
    21.0746  21.1768  21.2610  21.3404  21.4164  21.4987  21.7785  23.1408
    26.0014  26.5749  26.8346  27.1068  27.7254  28.6153  29.2502  29.6381
    29.7851  30.5848  31.8321  32.0586  32.6290  33.0483  33.6973  34.2856

          k = 0.4548 0.0662 0.0000 ( 16275 PWs)   bands (ev):

   -76.8988 -76.8178 -76.8145 -62.7211 -62.7205 -62.6956 -62.6945 -56.8560
   -45.3409 -45.3400 -45.2947 -45.2878 -45.2832 -45.2759 -45.2748 -45.2559
   -45.2558 -45.2549 -45.2548 -45.1990 -45.1978 -45.1976 -45.1967 -45.1860
   -45.1856 -45.1849 -45.1847 -45.1845 -45.1834 -31.1651 -31.1188 -31.1047
   -31.0506 -31.0073 -30.9569 -30.9171 -30.8194 -30.8122 -28.5141 -28.5127
   -28.4896 -28.4887 -28.4857 -28.4845 -28.4561 -28.4535 -28.4071 -28.4063
   -28.3657 -28.3654 -24.8698 -24.7292 -24.6523  16.2648  16.5019  16.5490
    16.6246  16.7250  16.8780  16.9427  16.9744  17.1504  17.2350  17.4234
    17.5595  17.6855  17.7572  17.9823  18.0098  18.0756  18.3604  18.4525
    18.5156  18.6624  18.7980  19.0077  19.0520  19.1589  19.3978  19.5473
    19.7044  19.9812  20.1439  20.3589  20.5636  20.5786  20.7917  21.2561
    21.3827  21.5395  21.5497  21.5833  21.7420  22.7990  23.1524  24.6370
    24.9061  25.2625  26.7985  27.5643  27.8093  29.0560  29.6412  29.9532
    30.0847  31.0298  31.3045  31.6672  31.8528  32.3011  33.0524  33.1452

          k = 0.4688 0.0912 0.0961 ( 16268 PWs)   bands (ev):

   -76.8988 -76.8178 -76.8145 -62.7211 -62.7205 -62.6956 -62.6945 -56.8560
   -45.3409 -45.3400 -45.2947 -45.2878 -45.2832 -45.2759 -45.2748 -45.2559
   -45.2558 -45.2549 -45.2548 -45.1990 -45.1978 -45.1976 -45.1967 -45.1860
   -45.1856 -45.1849 -45.1847 -45.1845 -45.1834 -31.1651 -31.1188 -31.1047
   -31.0506 -31.0073 -30.9569 -30.9171 -30.8194 -30.8122 -28.5136 -28.5131
   -28.4900 -28.4879 -28.4864 -28.4841 -28.4562 -28.4533 -28.4072 -28.4062
   -28.3657 -28.3654 -24.8698 -24.7292 -24.6523  16.3614  16.4302  16.5006
    16.5456  16.7216  16.8569  17.0218  17.0633  17.1467  17.2850  17.4242
    17.5197  17.6676  17.8214  17.9090  17.9707  18.0640  18.2750  18.4142
    18.5335  18.7407  18.8468  19.0335  19.0649  19.2817  19.3413  19.4256
    19.8115  19.9853  20.0979  20.2722  20.5885  20.7224  20.7987  21.1626
    21.2431  21.5396  21.5532  21.6340  21.7361  22.8292  22.9954  24.5807
    25.5687  25.7146  26.2326  26.8131  27.6821  29.2907  29.7275  30.0424
    30.2822  30.9313  31.4376  31.8392  32.2058  32.5221  32.7325  33.0657

          k = 0.4407 0.0411-0.0961 ( 16305 PWs)   bands (ev):

   -76.8988 -76.8178 -76.8145 -62.7211 -62.7205 -62.6956 -62.6945 -56.8560
   -45.3409 -45.3400 -45.2947 -45.2878 -45.2832 -45.2759 -45.2748 -45.2559
   -45.2558 -45.2549 -45.2548 -45.1990 -45.1978 -45.1976 -45.1967 -45.1860
   -45.1856 -45.1849 -45.1847 -45.1845 -45.1834 -31.1651 -31.1188 -31.1047
   -31.0506 -31.0073 -30.9569 -30.9171 -30.8194 -30.8122 -28.5142 -28.5125
   -28.4900 -28.4883 -28.4860 -28.4842 -28.4559 -28.4537 -28.4068 -28.4065
   -28.3657 -28.3654 -24.8698 -24.7292 -24.6523  16.3073  16.4135  16.6030
    16.6617  16.7159  16.8242  16.8854  17.1013  17.1296  17.2620  17.3727
    17.4661  17.6444  17.8083  17.9143  18.0677  18.2546  18.3813  18.4435
    18.6066  18.6821  18.7287  18.8922  18.9315  19.1466  19.4214  19.5845
    19.6577  20.1043  20.1611  20.2113  20.3620  20.7893  21.0047  21.1715
    21.2692  21.5057  21.6069  21.6484  21.8139  22.8163  23.4996  24.0340
    24.7049  25.0033  27.5040  27.7262  28.6291  28.8353  29.3792  29.7781
    30.2438  30.2881  30.6983  31.7336  31.9746  32.4525  32.8214  32.9305

          k = 0.4548 0.1653 0.0000 ( 16293 PWs)   bands (ev):

   -76.8988 -76.8175 -76.8149 -62.7211 -62.7204 -62.6957 -62.6946 -56.8559
   -45.3409 -45.3400 -45.2947 -45.2878 -45.2832 -45.2759 -45.2748 -45.2559
   -45.2558 -45.2549 -45.2548 -45.1990 -45.1980 -45.1975 -45.1967 -45.1861
   -45.1857 -45.1848 -45.1846 -45.1844 -45.1834 -31.1658 -31.1507 -31.1364
   -31.0511 -30.9664 -30.9328 -30.9171 -30.8185 -30.8131 -28.5361 -28.5350
   -28.5135 -28.5122 -28.4886 -28.4866 -28.4557 -28.4533 -28.3752 -28.3750
   -28.3484 -28.3481 -24.8685 -24.7278 -24.6523  15.7453  15.9482  16.1311
    16.2704  16.3742  16.4906  16.6260  16.8323  16.9047  16.9746  17.2044
    17.2980  17.7631  17.8466  17.9248  18.2967  18.3935  18.4243  18.6516
    18.9308  19.1350  19.2884  19.3244  19.3837  19.6816  19.9653  20.0570
    20.1185  20.3787  20.5723  20.7390  20.9915  21.0731  21.1254  21.2506
    21.3581  21.5029  21.5687  21.5975  21.7234  22.6179  22.9490  24.4000
    25.0371  25.1390  25.6680  26.3986  26.8879  28.1356  28.8316  29.2095
    30.0567  31.0758  31.6374  32.0058  32.1310  32.2926  33.3986  33.7679

          k = 0.4688 0.1903 0.0961 ( 16302 PWs)   bands (ev):

   -76.8988 -76.8175 -76.8149 -62.7211 -62.7204 -62.6957 -62.6946 -56.8559
   -45.3409 -45.3400 -45.2947 -45.2878 -45.2832 -45.2759 -45.2748 -45.2559
   -45.2558 -45.2549 -45.2548 -45.1990 -45.1980 -45.1975 -45.1967 -45.1861
   -45.1857 -45.1848 -45.1846 -45.1844 -45.1834 -31.1658 -31.1507 -31.1364
   -31.0511 -30.9664 -30.9328 -30.9171 -30.8185 -30.8131 -28.5360 -28.5351
   -28.5137 -28.5120 -28.4886 -28.4866 -28.4557 -28.4533 -28.3752 -28.3750
   -28.3483 -28.3481 -24.8685 -24.7278 -24.6523  15.7900  15.9382  16.0842
    16.1751  16.3935  16.5628  16.7001  16.8627  16.9180  16.9267  17.1507
    17.2623  17.7443  17.9030  18.0020  18.1643  18.4191  18.5261  18.6011
    18.8693  19.1221  19.2677  19.3249  19.4164  19.6878  19.9873  20.0646
    20.1561  20.3894  20.4798  20.8467  20.9582  21.0134  21.1739  21.2822
    21.3596  21.4420  21.6084  21.6155  21.6991  22.7494  22.7967  24.3728
    24.9675  25.1657  25.6466  26.3259  27.0914  28.1835  28.9647  29.2301
    29.8647  31.0747  31.5261  31.9297  32.0859  32.2309  33.4870  33.6103

          k = 0.4407 0.1402-0.0961 ( 16318 PWs)   bands (ev):

   -76.8988 -76.8175 -76.8149 -62.7211 -62.7204 -62.6957 -62.6946 -56.8559
   -45.3409 -45.3400 -45.2947 -45.2878 -45.2832 -45.2759 -45.2748 -45.2559
   -45.2558 -45.2549 -45.2548 -45.1990 -45.1980 -45.1975 -45.1967 -45.1861
   -45.1857 -45.1848 -45.1846 -45.1844 -45.1834 -31.1658 -31.1507 -31.1364
   -31.0511 -30.9664 -30.9328 -30.9171 -30.8185 -30.8131 -28.5365 -28.5345
   -28.5142 -28.5116 -28.4888 -28.4864 -28.4554 -28.4536 -28.3752 -28.3751
   -28.3484 -28.3480 -24.8685 -24.7278 -24.6523  15.7221  16.0322  16.0498
    16.3257  16.3933  16.4862  16.5999  16.8645  16.8873  16.9189  17.1852
    17.3600  17.5062  18.0604  18.1725  18.2098  18.3690  18.5286  18.5577
    18.6794  19.0636  19.2431  19.4005  19.7059  19.7343  19.7945  19.8447
    20.1670  20.1969  20.6843  20.9047  20.9069  21.1907  21.2303  21.2546
    21.3105  21.5404  21.5645  21.6281  21.8015  22.6013  23.3232  23.7177
    24.6390  24.7421  26.0928  26.2372  28.2331  28.5400  28.7567  29.0282
    30.0214  31.0046  31.0844  31.3782  31.4607  32.4185  32.5885  33.2903

          k = 0.4548 0.2644 0.0000 ( 16308 PWs)   bands (ev):

   -76.8988 -76.8169 -76.8155 -62.7210 -62.7203 -62.6958 -62.6947 -56.8559
   -45.3409 -45.3400 -45.2947 -45.2878 -45.2832 -45.2759 -45.2748 -45.2559
   -45.2558 -45.2549 -45.2548 -45.1990 -45.1981 -45.1974 -45.1967 -45.1861
   -45.1858 -45.1848 -45.1846 -45.1844 -45.1834 -31.1699 -31.1663 -31.1641
   -31.0517 -30.9319 -30.9192 -30.9171 -30.8170 -30.8146 -28.5518 -28.5510
   -28.5339 -28.5324 -28.4882 -28.4869 -28.4554 -28.4535 -28.3485 -28.3481
   -28.3383 -28.3379 -24.8671 -24.7264 -24.6523  15.4714  15.5049  15.8414
    16.0118  16.1536  16.2274  16.4068  16.6250  16.6563  16.7200  17.0454
    17.2090  17.6439  17.9430  17.9716  18.1763  18.5408  18.7509  18.8493
    19.0603  19.2541  19.6722  19.7568  19.8271  19.9962  20.1909  20.3732
    20.8154  20.9554  21.0937  21.2212  21.3467  21.3569  21.3834  21.4958
    21.6639  21.6732  21.7811  21.8001  21.9683  22.5961  22.9789  23.1902
    23.9275  24.9500  25.2533  25.7528  25.9158  27.8689  28.2524  28.7874
    29.5951  30.9273  31.1085  31.5442  31.6154  32.7157  33.8090  34.1690

          k = 0.4688 0.2895 0.0961 ( 16305 PWs)   bands (ev):

   -76.8988 -76.8169 -76.8155 -62.7210 -62.7203 -62.6958 -62.6947 -56.8559
   -45.3409 -45.3400 -45.2947 -45.2878 -45.2832 -45.2759 -45.2748 -45.2559
   -45.2558 -45.2549 -45.2548 -45.1990 -45.1981 -45.1974 -45.1967 -45.1861
   -45.1858 -45.1848 -45.1846 -45.1844 -45.1834 -31.1699 -31.1665 -31.1640
   -31.0517 -30.9319 -30.9192 -30.9171 -30.8170 -30.8146 -28.5520 -28.5508
   -28.5344 -28.5320 -28.4882 -28.4869 -28.4552 -28.4537 -28.3484 -28.3481
   -28.3383 -28.3379 -24.8671 -24.7264 -24.6523  15.4613  15.5445  15.8305
    15.9286  16.1270  16.2612  16.4710  16.6278  16.8049  16.8165  16.8791
    16.9868  17.9166  17.9340  17.9873  18.0209  18.5693  18.6878  19.1212
    19.1933  19.2815  19.3237  19.3962  19.5395  20.3717  20.4755  20.6235
    20.7507  20.7882  21.1610  21.2973  21.3552  21.3835  21.3961  21.4543
    21.5074  21.7175  21.7570  21.8220  21.9615  22.4581  22.8532  23.5707
    23.9116  24.4591  25.1006  25.6250  26.5400  27.9745  28.4938  28.6941
    29.7441  30.7720  30.8620  31.0253  31.3747  33.3303  33.8591  34.3928

          k = 0.4407 0.2394-0.0961 ( 16308 PWs)   bands (ev):

   -76.8988 -76.8169 -76.8155 -62.7210 -62.7203 -62.6958 -62.6947 -56.8559
   -45.3409 -45.3400 -45.2947 -45.2878 -45.2832 -45.2759 -45.2748 -45.2559
   -45.2558 -45.2549 -45.2548 -45.1990 -45.1981 -45.1974 -45.1967 -45.1861
   -45.1858 -45.1848 -45.1846 -45.1844 -45.1834 -31.1698 -31.1667 -31.1639
   -31.0517 -30.9319 -30.9192 -30.9171 -30.8170 -30.8146 -28.5523 -28.5505
   -28.5345 -28.5320 -28.4884 -28.4867 -28.4553 -28.4536 -28.3484 -28.3482
   -28.3384 -28.3379 -24.8671 -24.7264 -24.6523  15.4219  15.5645  15.8278
    16.0379  16.1186  16.2502  16.4103  16.6221  16.7021  16.7271  16.9628
    17.1465  17.6750  17.9749  18.0668  18.1785  18.6082  18.6973  18.8294
    19.0009  19.2229  19.5575  19.6922  19.7452  20.1060  20.2687  20.3289
    20.7939  21.1236  21.2091  21.3056  21.3696  21.3964  21.4216  21.5297
    21.5749  21.7280  21.7420  21.8154  21.9851  22.1678  23.0089  23.6946
    23.9293  24.1084  25.1417  25.5138  26.7737  28.1724  28.4115  28.7249
    29.7586  30.5352  30.7995  30.9642  31.3561  33.6105  33.8972  34.2801

          k = 0.4548-0.2312 0.0000 ( 16324 PWs)   bands (ev):

   -76.8988 -76.8168 -76.8155 -62.7209 -62.7203 -62.6958 -62.6947 -56.8559
   -45.3409 -45.3400 -45.2947 -45.2878 -45.2832 -45.2759 -45.2748 -45.2559
   -45.2558 -45.2549 -45.2548 -45.1990 -45.1981 -45.1974 -45.1967 -45.1861
   -45.1858 -45.1848 -45.1846 -45.1844 -45.1834 -31.1701 -31.1667 -31.1635
   -31.0517 -30.9304 -30.9207 -30.9171 -30.8169 -30.8147 -28.5520 -28.5503
   -28.5346 -28.5321 -28.4883 -28.4868 -28.4552 -28.4537 -28.3480 -28.3479
   -28.3387 -28.3383 -24.8671 -24.7265 -24.6523  15.4257  15.5750  15.7966
    16.0522  16.1319  16.2421  16.4134  16.6372  16.6538  16.7069  16.9894
    17.2207  17.6293  17.9950  18.0457  18.1705  18.5853  18.7520  18.7810
    18.9218  19.2127  19.7660  19.8608  19.8970  19.9555  20.0440  20.1205
    20.9257  21.0969  21.2319  21.3284  21.3860  21.3980  21.4679  21.4812
    21.5720  21.7282  21.7802  21.8231  21.9751  22.2823  22.7988  23.8174
    23.8712  24.0425  25.2864  25.3764  26.8204  28.2588  28.3370  28.7901
    29.8118  30.6170  30.7792  30.8196  31.1509  33.7255  34.1211  34.2251

          k = 0.4688-0.2061 0.0961 ( 16317 PWs)   bands (ev):

   -76.8988 -76.8168 -76.8155 -62.7209 -62.7203 -62.6958 -62.6947 -56.8559
   -45.3409 -45.3400 -45.2947 -45.2878 -45.2832 -45.2759 -45.2748 -45.2559
   -45.2558 -45.2549 -45.2548 -45.1990 -45.1981 -45.1974 -45.1967 -45.1861
   -45.1858 -45.1848 -45.1846 -45.1844 -45.1834 -31.1703 -31.1664 -31.1637
   -31.0517 -30.9304 -30.9207 -30.9171 -30.8170 -30.8147 -28.5516 -28.5508
   -28.5343 -28.5323 -28.4881 -28.4870 -28.4553 -28.4536 -28.3481 -28.3477
   -28.3387 -28.3384 -24.8671 -24.7265 -24.6523  15.4798  15.5194  15.8479
    15.9168  16.1370  16.2703  16.4587  16.6402  16.7005  16.7507  16.9908
    17.0835  17.7936  17.9284  17.9945  18.0707  18.5552  18.7608  18.9042
    19.1674  19.2673  19.4559  19.6019  19.6218  20.2094  20.3932  20.6319
    20.7138  20.8625  21.0716  21.2136  21.3562  21.3791  21.4042  21.4812
    21.5687  21.6998  21.7668  21.8042  21.9729  22.6298  22.8534  23.3384
    23.8761  24.9396  25.0180  25.7020  26.2057  27.8813  28.3801  28.7350
    29.6624  30.9533  31.0601  31.2652  31.4019  32.9752  33.8824  34.2452

          k = 0.4407-0.2562-0.0961 ( 16306 PWs)   bands (ev):

   -76.8988 -76.8168 -76.8155 -62.7209 -62.7203 -62.6958 -62.6947 -56.8559
   -45.3409 -45.3400 -45.2947 -45.2878 -45.2832 -45.2759 -45.2748 -45.2559
   -45.2558 -45.2549 -45.2548 -45.1990 -45.1981 -45.1974 -45.1967 -45.1861
   -45.1858 -45.1848 -45.1846 -45.1844 -45.1834 -31.1702 -31.1665 -31.1637
   -31.0517 -30.9304 -30.9207 -30.9171 -30.8169 -30.8147 -28.5519 -28.5505
   -28.5343 -28.5324 -28.4883 -28.4868 -28.4554 -28.4535 -28.3481 -28.3477
   -28.3387 -28.3384 -24.8671 -24.7265 -24.6523  15.4504  15.5198  15.8841
    15.9723  16.1339  16.2319  16.4237  16.6048  16.7332  16.8144  16.9643
    17.0276  17.7925  17.8872  18.0118  18.1758  18.5612  18.7229  18.9556
    19.2250  19.2988  19.3815  19.4682  19.5517  20.2752  20.5209  20.5841
    20.7983  20.8580  20.9732  21.2354  21.3620  21.3678  21.3925  21.4606
    21.5607  21.7160  21.7844  21.8053  21.9710  22.4249  23.0904  23.3345
    24.0171  24.7040  24.9465  25.6962  26.3551  27.9418  28.2943  28.7732
    29.6246  30.7267  30.9522  31.4243  31.7028  33.0331  33.7938  34.0302

          k = 0.4548-0.1321 0.0000 ( 16302 PWs)   bands (ev):

   -76.8988 -76.8174 -76.8149 -62.7210 -62.7204 -62.6957 -62.6946 -56.8559
   -45.3409 -45.3400 -45.2947 -45.2878 -45.2832 -45.2759 -45.2748 -45.2559
   -45.2558 -45.2549 -45.2548 -45.1990 -45.1980 -45.1975 -45.1967 -45.1861
   -45.1857 -45.1848 -45.1846 -45.1844 -45.1834 -31.1658 -31.1511 -31.1360
   -31.0511 -30.9651 -30.9341 -30.9171 -30.8185 -30.8132 -28.5361 -28.5343
   -28.5144 -28.5119 -28.4887 -28.4864 -28.4555 -28.4535 -28.3750 -28.3748
   -28.3487 -28.3484 -24.8685 -24.7278 -24.6523  15.7441  15.9990  16.0462
    16.3330  16.3400  16.5389  16.6134  16.8624  16.9139  16.9472  17.1481
    17.2699  17.6206  18.0034  18.1181  18.2905  18.3441  18.4589  18.5922
    18.8111  19.0381  19.1319  19.4947  19.6070  19.6634  19.8526  19.9088
    20.1794  20.2648  20.6434  20.8998  20.9074  21.1584  21.2028  21.2776
    21.3117  21.5437  21.5998  21.6165  21.7449  22.6502  23.1129  23.9851
    24.5352  24.8750  26.0220  26.2129  28.1167  28.4070  28.8236  29.2052
    29.8891  30.9131  31.2279  31.4298  31.6131  32.2310  32.8712  33.3073

          k = 0.4688-0.1070 0.0961 ( 16295 PWs)   bands (ev):

   -76.8988 -76.8174 -76.8149 -62.7210 -62.7204 -62.6957 -62.6946 -56.8559
   -45.3409 -45.3400 -45.2947 -45.2878 -45.2832 -45.2759 -45.2748 -45.2559
   -45.2558 -45.2549 -45.2548 -45.1990 -45.1980 -45.1975 -45.1967 -45.1861
   -45.1857 -45.1848 -45.1846 -45.1844 -45.1834 -31.1658 -31.1511 -31.1360
   -31.0511 -30.9651 -30.9341 -30.9171 -30.8185 -30.8132 -28.5354 -28.5351
   -28.5137 -28.5126 -28.4885 -28.4866 -28.4557 -28.4532 -28.3750 -28.3748
   -28.3486 -28.3485 -24.8685 -24.7278 -24.6523  15.7901  15.9215  16.1065
    16.1853  16.4240  16.5434  16.6548  16.7895  16.8502  16.9739  17.3356
    17.3896  17.5673  17.8097  18.0786  18.1589  18.3042  18.4817  18.6994
    18.9112  19.1683  19.2431  19.4617  19.4987  19.6509  19.9021  19.9359
    20.1454  20.3489  20.5855  20.8106  20.9897  21.0523  21.1302  21.2029
    21.3475  21.4714  21.5785  21.6268  21.7143  22.7020  22.8178  24.3362
    25.3050  25.3932  25.6444  26.2842  26.4779  28.1348  28.9594  29.2222
    29.8674  31.2014  31.5774  32.1677  32.3547  32.4138  33.5794  33.7445

          k = 0.4407-0.1571-0.0961 ( 16295 PWs)   bands (ev):

   -76.8988 -76.8174 -76.8149 -62.7210 -62.7204 -62.6957 -62.6946 -56.8559
   -45.3409 -45.3400 -45.2947 -45.2878 -45.2832 -45.2759 -45.2748 -45.2559
   -45.2558 -45.2549 -45.2548 -45.1990 -45.1980 -45.1975 -45.1967 -45.1861
   -45.1857 -45.1848 -45.1846 -45.1844 -45.1834 -31.1658 -31.1511 -31.1360
   -31.0511 -30.9651 -30.9341 -30.9171 -30.8185 -30.8132 -28.5360 -28.5344
   -28.5142 -28.5121 -28.4886 -28.4865 -28.4556 -28.4534 -28.3750 -28.3748
   -28.3487 -28.3484 -24.8685 -24.7278 -24.6523  15.7227  15.9895  16.1529
    16.2160  16.3667  16.5384  16.6541  16.7928  16.9384  17.0493  17.1023
    17.1774  17.7431  17.9414  18.0340  18.2843  18.3747  18.5216  18.7138
    18.7205  19.0584  19.1845  19.3420  19.4422  19.8209  19.8692  20.0432
    20.1822  20.3614  20.4959  20.8357  21.0012  21.0428  21.1476  21.2994
    21.3608  21.5330  21.5682  21.5859  21.7345  22.5904  23.0646  24.4933
    24.5224  24.8848  25.8320  26.3634  27.5494  28.2107  28.7690  29.1719
    30.2014  30.9076  31.5673  31.7583  31.8564  32.0191  33.2585  33.4331

          k = 0.4548-0.0329 0.0000 ( 16298 PWs)   bands (ev):

   -76.8988 -76.8178 -76.8145 -62.7211 -62.7205 -62.6956 -62.6945 -56.8560
   -45.3409 -45.3400 -45.2947 -45.2878 -45.2832 -45.2759 -45.2748 -45.2559
   -45.2558 -45.2549 -45.2548 -45.1989 -45.1978 -45.1976 -45.1967 -45.1860
   -45.1856 -45.1849 -45.1847 -45.1845 -45.1835 -31.1651 -31.1191 -31.1044
   -31.0506 -31.0066 -30.9575 -30.9171 -30.8194 -30.8122 -28.5139 -28.5124
   -28.4904 -28.4886 -28.4859 -28.4838 -28.4560 -28.4535 -28.4069 -28.4064
   -28.3658 -28.3656 -24.8698 -24.7292 -24.6523  16.3476  16.4011  16.5518
    16.5928  16.7347  16.8901  16.9057  17.0932  17.1827  17.1893  17.3738
    17.5230  17.6966  17.7397  17.9238  18.0690  18.2301  18.3493  18.3873
    18.5774  18.6471  18.7551  18.9638  19.0254  19.1681  19.3669  19.6001
    19.6717  20.0260  20.1548  20.3294  20.4090  20.6750  20.8822  21.2469
    21.3473  21.5430  21.5859  21.6018  21.7534  22.8251  23.2378  24.5084
    24.6418  25.1748  27.0761  27.6773  28.2079  29.0058  29.4445  29.9201
    30.0764  30.7814  31.0110  31.7523  31.9014  32.1264  33.0368  33.2239

          k = 0.4688-0.0079 0.0961 ( 16284 PWs)   bands (ev):

   -76.8988 -76.8178 -76.8145 -62.7211 -62.7205 -62.6956 -62.6945 -56.8560
   -45.3409 -45.3400 -45.2947 -45.2878 -45.2832 -45.2759 -45.2748 -45.2559
   -45.2558 -45.2549 -45.2548 -45.1989 -45.1978 -45.1976 -45.1967 -45.1860
   -45.1856 -45.1849 -45.1847 -45.1845 -45.1835 -31.1651 -31.1191 -31.1044
   -31.0506 -31.0066 -30.9575 -30.9171 -30.8194 -30.8122 -28.5135 -28.5129
   -28.4903 -28.4887 -28.4858 -28.4839 -28.4562 -28.4533 -28.4071 -28.4061
   -28.3659 -28.3655 -24.8698 -24.7292 -24.6523  16.3170  16.4663  16.5121
    16.5720  16.7213  16.8229  16.9906  17.0638  17.1997  17.2622  17.4341
    17.5725  17.6967  17.7322  17.8784  17.9673  18.0786  18.2754  18.4269
    18.5381  18.7099  18.9446  18.9828  19.0801  19.2831  19.3658  19.3835
    19.8075  19.9974  20.1083  20.2134  20.6256  20.7169  20.9077  21.0443
    21.2087  21.5268  21.5911  21.6318  21.7393  22.8158  22.9886  24.5823
    25.8240  25.9987  26.0999  26.3312  27.6547  29.3082  29.7551  30.0770
    30.3153  30.9833  31.5980  31.6856  32.2893  32.5732  32.7287  33.0348

          k = 0.4407-0.0580-0.0961 ( 16283 PWs)   bands (ev):

   -76.8988 -76.8178 -76.8145 -62.7211 -62.7205 -62.6956 -62.6945 -56.8560
   -45.3409 -45.3400 -45.2947 -45.2878 -45.2832 -45.2759 -45.2748 -45.2559
   -45.2558 -45.2549 -45.2548 -45.1989 -45.1978 -45.1976 -45.1967 -45.1860
   -45.1856 -45.1849 -45.1847 -45.1845 -45.1835 -31.1651 -31.1192 -31.1044
   -31.0506 -31.0066 -30.9575 -30.9171 -30.8194 -30.8122 -28.5140 -28.5123
   -28.4900 -28.4893 -28.4853 -28.4842 -28.4559 -28.4536 -28.4069 -28.4064
   -28.3658 -28.3656 -24.8698 -24.7292 -24.6523  16.2615  16.4815  16.5821
    16.6335  16.7893  16.8296  16.9294  16.9507  17.1427  17.2503  17.4301
    17.4816  17.6440  17.8290  17.9480  18.0324  18.1987  18.3381  18.4901
    18.5282  18.7005  18.7637  18.9105  18.9761  19.1527  19.4413  19.5493
    19.6821  20.0140  20.1353  20.3213  20.4420  20.6817  20.9041  21.2372
    21.3441  21.5210  21.5547  21.6396  21.7836  22.8004  23.3469  24.3482
    24.7015  25.0495  27.2391  27.7386  28.3671  28.8559  29.3225  29.9606
    30.1254  30.6725  30.9681  31.5755  32.1343  32.1539  32.9212  33.1083

     the Fermi energy is    21.5114 ev

!    total energy              =   -4328.29545897 Ry
     estimated scf accuracy    <          1.0E-09 Ry
     smearing contrib. (-TS)   =      -0.00170439 Ry
     internal energy E=F+TS    =   -4328.29375458 Ry

     The total energy is F=E-TS. E is the sum of the following terms:
     one-electron contribution =   -2812.76579473 Ry
     hartree contribution      =    1518.45262814 Ry
     xc contribution           =    -347.52572142 Ry
     ewald contribution        =   -2686.45486656 Ry

     convergence has been achieved in  24 iterations

     Forces acting on atoms (cartesian axes, Ry/au):

     atom    1 type  1   force =    -0.00062847   -0.00014586   -0.00367567
     atom    2 type  1   force =     0.00069870    0.00002077    0.00389131
     atom    3 type  1   force =     0.00052927    0.00130267    0.00298343
     atom    4 type  1   force =    -0.00050599   -0.00144790   -0.00354913
     atom    5 type  2   force =     0.00000488    0.00015188    0.00026578
     atom    6 type  2   force =    -0.00014176    0.00052919    0.00043236
     atom    7 type  2   force =     0.00010811   -0.00037401   -0.00036273
     atom    8 type  3   force =    -0.00006475   -0.00003675    0.00001465

     Total force =     0.007500     Total SCF correction =     0.000090


     Computing stress (Cartesian axis) and pressure

          total   stress  (Ry/bohr**3)                   (kbar)     P=      -30.24
  -0.00019753  -0.00000176   0.00000839          -29.06       -0.26        1.23
  -0.00000176  -0.00023320   0.00000680           -0.26      -34.30        1.00
   0.00000839   0.00000680  -0.00018588            1.23        1.00      -27.34


     Writing all to output data dir /home/tenant3/nexus-mat/dft/runs/dft-paper-worker-03/jobs/Pt-Pd-Rh-07_Pd4Pt3Rh/tmp/Pt-Pd-Rh-07_Pd4Pt3Rh.save/ :
     XML data file, charge density, pseudopotentials, collected wavefunctions

     init_run     :    600.43s CPU    881.41s WALL (       1 calls)
     electrons    :  28783.19s CPU  88833.78s WALL (       1 calls)
     forces       :    208.11s CPU    732.63s WALL (       1 calls)
     stress       :    692.12s CPU   2435.47s WALL (       1 calls)

     Called by init_run:
     wfcinit      :    592.42s CPU    872.42s WALL (       1 calls)
     potinit      :      0.62s CPU      0.68s WALL (       1 calls)
     hinit0       :      0.86s CPU      0.89s WALL (       1 calls)

     Called by electrons:
     c_bands      :  25851.48s CPU  78225.96s WALL (      24 calls)
     sum_band     :   2818.30s CPU  10156.23s WALL (      24 calls)
     v_of_rho     :      9.14s CPU     32.13s WALL (      25 calls)
     newd         :    108.35s CPU    417.89s WALL (      25 calls)
     mix_rho      :      1.69s CPU      5.92s WALL (      24 calls)

     Called by c_bands:
     init_us_2    :     69.53s CPU    241.72s WALL (    4590 calls)
     cegterg      :  25599.43s CPU  77337.49s WALL (    2160 calls)

     Called by *egterg:
     cdiaghg      :    143.09s CPU    493.78s WALL (    6135 calls)
     h_psi        :  10797.20s CPU  32743.81s WALL (    6225 calls)
     s_psi        :   2988.61s CPU   8965.87s WALL (    6225 calls)
     g_psi        :     12.17s CPU     37.92s WALL (    3975 calls)

     Called by h_psi:
     h_psi:calbec :   3740.67s CPU  11123.90s WALL (    6225 calls)
     vloc_psi     :   4045.09s CPU  12467.40s WALL (    6225 calls)
                                        0.00s GPU  (    6225 calls)
     add_vuspsi   :   2992.51s CPU   8980.80s WALL (    6225 calls)

     General routines
     calbec       :   6264.59s CPU  19432.81s WALL (    9915 calls)
     fft          :      6.78s CPU     22.15s WALL (     348 calls)
     ffts         :      0.34s CPU      1.17s WALL (      49 calls)
     fftw         :   4288.50s CPU  13870.47s WALL ( 1260274 calls)
     interpolate  :      0.77s CPU      2.50s WALL (      25 calls)


     PWSCF        :      8h24m CPU   1d 1h48m WALL


   This run was terminated on:  20:41:16  21Jul2026            

=------------------------------------------------------------------------------=
   JOB DONE.
=------------------------------------------------------------------------------=
