
     Program PWSCF v.7.5 starts on 21Jul2026 at  7:42:33 

     This program is part of the open-source Quantum ESPRESSO suite
     for quantum simulation of materials; please cite
         "P. Giannozzi et al., J. Phys.:Condens. Matter 21 395502 (2009);
         "P. Giannozzi et al., J. Phys.:Condens. Matter 29 465901 (2017);
         "P. Giannozzi et al., J. Chem. Phys. 152 154105 (2020);
          URL http://www.quantum-espresso.org", 
     in publications or presentations arising from this work. More details at
     http://www.quantum-espresso.org/quote

     Serial multi-threaded version, running on    1 processor cores
     8513 MiB available memory on the printing compute node when the environment starts

     Reading input from /home/tenant3/nexus-mat/dft/runs/dft-paper-worker-11/jobs/Pt-Pd-Rh-04_Pd2Pt3Rh2/input.in

     Current dimensions of program PWSCF are:
     Max number of different atomic species (ntypx) = 10
     Max number of k-points (npk) =  40000
     Max angular momentum in pseudopotentials (lmaxx) =  4
     file Pt.pbe-spfn-rrkjus_psl.1.0.0.UPF: wavefunction(s)  5P renormalized


     G-vector sticks info
     --------------------
     sticks:   dense  smooth     PW     G-vecs:    dense   smooth      PW
     Sum        4309    2163    617               317335   112345   16867

     Using Slab Decomposition



     bravais-lattice index     =            0
     lattice parameter (alat)  =       7.4276  a.u.
     unit-cell volume          =     720.2599 (a.u.)^3
     number of atoms/cell      =            7
     number of atomic types    =            3
     number of electrons       =       166.00
     number of Kohn-Sham states=          100
     kinetic-energy cutoff     =     110.0000  Ry
     charge density cutoff     =     880.0000  Ry
     scf convergence threshold =      1.0E-08
     mixing beta               =       0.3000
     number of iterations used =            8  plain     mixing
     Exchange-correlation= PBE
                           (   1   4   3   4   0   0   0)

     celldm(1)=   7.427571  celldm(2)=   0.000000  celldm(3)=   0.000000
     celldm(4)=   0.000000  celldm(5)=   0.000000  celldm(6)=   0.000000

     crystal axes: (cart. coord. in units of alat)
               a(1) = (   1.000000   0.000000  -0.000038 )  
               a(2) = (  -0.499198   1.108626  -0.154244 )  
               a(3) = (   0.000000   0.000000   1.585491 )  

     reciprocal axes: (cart. coord. in units 2 pi/alat)
               b(1) = (  1.000000  0.450285 -0.000000 )  
               b(2) = ( -0.000000  0.902017  0.000000 )  
               b(3) = (  0.000024  0.087763  0.630719 )  


     PseudoPot. # 1 for Pd read from file:
     /home/tenant3/nexus-mat/dft/pseudo/SSSP_1.3.0_PBE_precision/Pd_ONCV_PBE-1.0.oncvpsp.upf
     MD5 check sum: eb77f42b51d86fb18e25f68156a31cf1
     Pseudo is Norm-conserving, Zval = 18.0
     Generated using ONCVPSP code by D. R. Hamann
     Using radial grid of 1410 points,  6 beta functions with: 
                l(1) =   0
                l(2) =   0
                l(3) =   1
                l(4) =   1
                l(5) =   2
                l(6) =   2

     PseudoPot. # 2 for Pt read from file:
     /home/tenant3/nexus-mat/dft/pseudo/SSSP_1.3.0_PBE_precision/Pt.pbe-spfn-rrkjus_psl.1.0.0.UPF
     MD5 check sum: ed006ba81d2b6b3b17616bb61ae12f04
     Pseudo is Ultrasoft + core correction, Zval = 32.0
     Generated using "atomic" code by A. Dal Corso  v.5.1
     Using radial grid of 1277 points,  8 beta functions with: 
                l(1) =   0
                l(2) =   0
                l(3) =   1
                l(4) =   1
                l(5) =   2
                l(6) =   2
                l(7) =   3
                l(8) =   3
     Q(r) pseudized with 0 coefficients 


     PseudoPot. # 3 for Rh read from file:
     /home/tenant3/nexus-mat/dft/pseudo/SSSP_1.3.0_PBE_precision/Rh_ONCV_PBE-1.0.oncvpsp.upf
     MD5 check sum: ba07c69523b14cacd10683cd4c4284c1
     Pseudo is Norm-conserving, Zval = 17.0
     Generated using ONCVPSP code by D. R. Hamann
     Using radial grid of 1442 points,  6 beta functions with: 
                l(1) =   0
                l(2) =   0
                l(3) =   1
                l(4) =   1
                l(5) =   2
                l(6) =   2

     atomic species   valence    mass     pseudopotential
     Pd               18.00   106.42000     Pd( 1.00)
     Pt               32.00   195.08400     Pt( 1.00)
     Rh               17.00   102.90549     Rh( 1.00)

     No symmetry found



   Cartesian axes

     site n.     atom                  positions (alat units)
         1        Pd     tau(   1) = (   0.1436935   1.0429606  -0.1098701  )
         2        Pd     tau(   2) = (   0.1432328   0.4045705   0.2058417  )
         3        Pt     tau(   3) = (   0.6431721   0.2456010   0.6894730  )
         4        Pt     tau(   4) = (  -0.3564009   0.8768984   0.3749084  )
         5        Pt     tau(   5) = (   0.6433776   0.5680396   1.3125771  )
         6        Rh     tau(   6) = (   0.1430549   0.0886087   1.1505406  )
         7        Rh     tau(   7) = (   0.1434930   0.7234354   0.8475609  )

     number of k points=   120  Marzari-Vanderbilt smearing, width (Ry)=  0.0200

     Number of k-points >= 100: set verbosity='high' to print them.

     Dense  grid:   317335 G-vectors     FFT dimensions: (  72,  90, 120)

     Smooth grid:   112345 G-vectors     FFT dimensions: (  50,  64,  80)

     Estimated max dynamical RAM per process >       5.53 GB

     Initial potential from superposition of free atoms

     starting charge     165.9980, renormalised to     166.0000
     Starting wfcs are   91 randomized atomic wfcs +    9 random wfcs

     total cpu time spent up to now is     1388.6 secs

     Self-consistent Calculation

     iteration #  1     ecut=   110.00 Ry     beta= 0.30
     Davidson diagonalization with overlap
     ethr =  1.00E-02,  avg # of iterations =  3.0

     total cpu time spent up to now is     6475.0 secs

     total energy              =   -4038.15603882 Ry
     estimated scf accuracy    <       1.70074312 Ry

     iteration #  2     ecut=   110.00 Ry     beta= 0.30
     Davidson diagonalization with overlap
     ethr =  1.02E-03,  avg # of iterations =  2.4

     total cpu time spent up to now is    11468.1 secs

     total energy              =   -4038.35061207 Ry
     estimated scf accuracy    <       6.28127927 Ry

     iteration #  3     ecut=   110.00 Ry     beta= 0.30
     Davidson diagonalization with overlap
     ethr =  1.02E-03,  avg # of iterations =  2.0

     total cpu time spent up to now is    15851.2 secs

     total energy              =   -4038.70362146 Ry
     estimated scf accuracy    <       1.95617230 Ry

     iteration #  4     ecut=   110.00 Ry     beta= 0.30
     Davidson diagonalization with overlap
     ethr =  1.02E-03,  avg # of iterations =  1.0

     total cpu time spent up to now is    19549.8 secs

     total energy              =   -4038.82241274 Ry
     estimated scf accuracy    <       0.17505312 Ry

     iteration #  5     ecut=   110.00 Ry     beta= 0.30
     Davidson diagonalization with overlap
     ethr =  1.05E-04,  avg # of iterations =  1.1

     total cpu time spent up to now is    23304.6 secs

     total energy              =   -4038.81606147 Ry
     estimated scf accuracy    <       0.05216684 Ry

     iteration #  6     ecut=   110.00 Ry     beta= 0.30
     Davidson diagonalization with overlap
     ethr =  3.14E-05,  avg # of iterations =  2.3

     total cpu time spent up to now is    27443.0 secs

     total energy              =   -4038.81983535 Ry
     estimated scf accuracy    <       0.02768858 Ry

     iteration #  7     ecut=   110.00 Ry     beta= 0.30
     Davidson diagonalization with overlap
     ethr =  1.67E-05,  avg # of iterations =  1.1

     total cpu time spent up to now is    31226.5 secs

     total energy              =   -4038.82101933 Ry
     estimated scf accuracy    <       0.00365280 Ry

     iteration #  8     ecut=   110.00 Ry     beta= 0.30
     Davidson diagonalization with overlap
     ethr =  2.20E-06,  avg # of iterations =  3.9

     total cpu time spent up to now is    35448.2 secs

     total energy              =   -4038.82114590 Ry
     estimated scf accuracy    <       0.00129622 Ry

     iteration #  9     ecut=   110.00 Ry     beta= 0.30
     Davidson diagonalization with overlap
     ethr =  7.81E-07,  avg # of iterations =  1.4

     total cpu time spent up to now is    39024.2 secs

     total energy              =   -4038.82121748 Ry
     estimated scf accuracy    <       0.00168629 Ry

     iteration # 10     ecut=   110.00 Ry     beta= 0.30
     Davidson diagonalization with overlap
     ethr =  7.81E-07,  avg # of iterations =  1.1

     total cpu time spent up to now is    42023.8 secs

     total energy              =   -4038.82133528 Ry
     estimated scf accuracy    <       0.00001676 Ry

     iteration # 11     ecut=   110.00 Ry     beta= 0.30
     Davidson diagonalization with overlap
     ethr =  1.01E-08,  avg # of iterations =  2.0

     total cpu time spent up to now is    45130.3 secs

     total energy              =   -4038.82133539 Ry
     estimated scf accuracy    <       0.00001970 Ry

     iteration # 12     ecut=   110.00 Ry     beta= 0.30
     Davidson diagonalization with overlap
     ethr =  1.01E-08,  avg # of iterations =  1.0

     total cpu time spent up to now is    47557.8 secs

     total energy              =   -4038.82133719 Ry
     estimated scf accuracy    <       0.00000398 Ry

     iteration # 13     ecut=   110.00 Ry     beta= 0.30
     Davidson diagonalization with overlap
     ethr =  2.39E-09,  avg # of iterations =  1.0

     total cpu time spent up to now is    49740.9 secs

     total energy              =   -4038.82133749 Ry
     estimated scf accuracy    <       0.00000048 Ry

     iteration # 14     ecut=   110.00 Ry     beta= 0.30
     Davidson diagonalization with overlap
     ethr =  2.88E-10,  avg # of iterations =  1.0

     total cpu time spent up to now is    52146.5 secs

     total energy              =   -4038.82133752 Ry
     estimated scf accuracy    <       0.00000022 Ry

     iteration # 15     ecut=   110.00 Ry     beta= 0.30
     Davidson diagonalization with overlap
     ethr =  1.35E-10,  avg # of iterations =  1.0

     total cpu time spent up to now is    54652.2 secs

     total energy              =   -4038.82133754 Ry
     estimated scf accuracy    <       0.00000001 Ry

     iteration # 16     ecut=   110.00 Ry     beta= 0.30
     Davidson diagonalization with overlap
     ethr =  7.67E-12,  avg # of iterations =  1.0

     total cpu time spent up to now is    57160.1 secs

     End of self-consistent calculation

     Number of k-points >= 100: set verbosity='high' to print the bands.

     the Fermi energy is    22.5406 ev

!    total energy              =   -4038.82133753 Ry
     estimated scf accuracy    <          8.6E-09 Ry
     smearing contrib. (-TS)   =      -0.00472542 Ry
     internal energy E=F+TS    =   -4038.81661212 Ry

     The total energy is F=E-TS. E is the sum of the following terms:
     one-electron contribution =   -2584.51734675 Ry
     hartree contribution      =    1396.05173887 Ry
     xc contribution           =    -319.87647689 Ry
     ewald contribution        =   -2530.47452735 Ry

     convergence has been achieved in  16 iterations

     Forces acting on atoms (cartesian axes, Ry/au):

     atom    1 type  1   force =    -0.00005267   -0.00262915   -0.00281529
     atom    2 type  1   force =     0.00008915    0.00159443    0.00086054
     atom    3 type  2   force =     0.00001595   -0.00126867    0.00718473
     atom    4 type  2   force =    -0.00003107    0.00079290    0.00283393
     atom    5 type  2   force =     0.00006565    0.00130484   -0.00519488
     atom    6 type  3   force =    -0.00002929    0.00074268   -0.00573725
     atom    7 type  3   force =    -0.00005772   -0.00053704    0.00286822

     Total force =     0.012276     Total SCF correction =     0.000519


     Computing stress (Cartesian axis) and pressure

          total   stress  (Ry/bohr**3)                   (kbar)     P=      -28.40
  -0.00017908  -0.00000450  -0.00000079          -26.34       -0.66       -0.12
  -0.00000450  -0.00018266  -0.00002257           -0.66      -26.87       -3.32
  -0.00000079  -0.00002257  -0.00021749           -0.12       -3.32      -31.99


     Writing all to output data dir /home/tenant3/nexus-mat/dft/runs/dft-paper-worker-11/jobs/Pt-Pd-Rh-04_Pd2Pt3Rh2/tmp/Pt-Pd-Rh-04_Pd2Pt3Rh2.save/ :
     XML data file, charge density, pseudopotentials, collected wavefunctions

     init_run     :    274.11s CPU   1387.97s WALL (       1 calls)
     electrons    :  12716.53s CPU  55771.54s WALL (       1 calls)
     forces       :    187.06s CPU    658.09s WALL (       1 calls)
     stress       :    625.59s CPU   2203.76s WALL (       1 calls)

     Called by init_run:
     wfcinit      :    270.08s CPU   1363.00s WALL (       1 calls)
     potinit      :      0.40s CPU      2.28s WALL (       1 calls)
     hinit0       :      0.75s CPU      3.86s WALL (       1 calls)

     Called by electrons:
     c_bands      :  11331.29s CPU  49700.02s WALL (      16 calls)
     sum_band     :   1337.62s CPU   5809.76s WALL (      16 calls)
     v_of_rho     :      4.42s CPU     21.33s WALL (      17 calls)
     newd         :     45.05s CPU    255.04s WALL (      17 calls)
     mix_rho      :      0.67s CPU      2.89s WALL (      16 calls)

     Called by c_bands:
     init_us_2    :     45.59s CPU    194.16s WALL (    4200 calls)
     cegterg      :  11163.76s CPU  48977.02s WALL (    1920 calls)

     Called by *egterg:
     cdiaghg      :     86.30s CPU    378.59s WALL (    5083 calls)
     h_psi        :   5087.57s CPU  22249.39s WALL (    5203 calls)
     s_psi        :   1281.95s CPU   5569.73s WALL (    5203 calls)
     g_psi        :      6.33s CPU     27.46s WALL (    3163 calls)

     Called by h_psi:
     h_psi:calbec :   1559.17s CPU   6777.79s WALL (    5203 calls)
     vloc_psi     :   2236.89s CPU   9761.99s WALL (    5203 calls)
                                        0.00s GPU  (    5203 calls)
     add_vuspsi   :   1282.77s CPU   5575.69s WALL (    5203 calls)

     General routines
     calbec       :   3048.59s CPU  12565.14s WALL (    9163 calls)
     fft          :      3.19s CPU     13.70s WALL (     244 calls)
     ffts         :      0.14s CPU      0.58s WALL (      33 calls)
     fftw         :   2478.18s CPU  10265.43s WALL ( 1011950 calls)
     interpolate  :      0.34s CPU      1.50s WALL (      17 calls)


     PWSCF        :      3h50m CPU     16h40m WALL


   This run was terminated on:   0:23: 0  22Jul2026            

=------------------------------------------------------------------------------=
   JOB DONE.
=------------------------------------------------------------------------------=
