
     Program PWSCF v.7.5 starts on 21Jul2026 at  0:29:45 

     This program is part of the open-source Quantum ESPRESSO suite
     for quantum simulation of materials; please cite
         "P. Giannozzi et al., J. Phys.:Condens. Matter 21 395502 (2009);
         "P. Giannozzi et al., J. Phys.:Condens. Matter 29 465901 (2017);
         "P. Giannozzi et al., J. Chem. Phys. 152 154105 (2020);
          URL http://www.quantum-espresso.org", 
     in publications or presentations arising from this work. More details at
     http://www.quantum-espresso.org/quote

     Serial multi-threaded version, running on    1 processor cores
     5740 MiB available memory on the printing compute node when the environment starts

     Reading input from /home/tenant3/nexus-mat/dft/runs/dft-paper-worker-09/jobs/Pt-Pd-13_PdPt2/input.in

     Current dimensions of program PWSCF are:
     Max number of different atomic species (ntypx) = 10
     Max number of k-points (npk) =  40000
     Max angular momentum in pseudopotentials (lmaxx) =  4
     file Pt.pbe-spfn-rrkjus_psl.1.0.0.UPF: wavefunction(s)  5P renormalized


     G-vector sticks info
     --------------------
     sticks:   dense  smooth     PW     G-vecs:    dense   smooth      PW
     Sum        2811    1413    421               140427    49685    8105

     Using Slab Decomposition



     bravais-lattice index     =            0
     lattice parameter (alat)  =       6.3433  a.u.
     unit-cell volume          =     318.9160 (a.u.)^3
     number of atoms/cell      =            3
     number of atomic types    =            2
     number of electrons       =        82.00
     number of Kohn-Sham states=           49
     kinetic-energy cutoff     =     110.0000  Ry
     charge density cutoff     =     880.0000  Ry
     scf convergence threshold =      1.0E-08
     mixing beta               =       0.3000
     number of iterations used =            8  plain     mixing
     Exchange-correlation= PBE
                           (   1   4   3   4   0   0   0)

     celldm(1)=   6.343282  celldm(2)=   0.000000  celldm(3)=   0.000000
     celldm(4)=   0.000000  celldm(5)=   0.000000  celldm(6)=   0.000000

     crystal axes: (cart. coord. in units of alat)
               a(1) = (   0.937251   0.000000  -0.348655 )  
               a(2) = (  -0.130414   0.930103  -0.350252 )  
               a(3) = (   0.000000   0.000000   1.433334 )  

     reciprocal axes: (cart. coord. in units 2 pi/alat)
               b(1) = (  1.066950  0.149602 -0.000000 )  
               b(2) = ( -0.000000  1.075150  0.000000 )  
               b(3) = (  0.259533  0.299116  0.697674 )  


     PseudoPot. # 1 for Pd read from file:
     /home/tenant3/nexus-mat/dft/pseudo/SSSP_1.3.0_PBE_precision/Pd_ONCV_PBE-1.0.oncvpsp.upf
     MD5 check sum: eb77f42b51d86fb18e25f68156a31cf1
     Pseudo is Norm-conserving, Zval = 18.0
     Generated using ONCVPSP code by D. R. Hamann
     Using radial grid of 1410 points,  6 beta functions with: 
                l(1) =   0
                l(2) =   0
                l(3) =   1
                l(4) =   1
                l(5) =   2
                l(6) =   2

     PseudoPot. # 2 for Pt read from file:
     /home/tenant3/nexus-mat/dft/pseudo/SSSP_1.3.0_PBE_precision/Pt.pbe-spfn-rrkjus_psl.1.0.0.UPF
     MD5 check sum: ed006ba81d2b6b3b17616bb61ae12f04
     Pseudo is Ultrasoft + core correction, Zval = 32.0
     Generated using "atomic" code by A. Dal Corso  v.5.1
     Using radial grid of 1277 points,  8 beta functions with: 
                l(1) =   0
                l(2) =   0
                l(3) =   1
                l(4) =   1
                l(5) =   2
                l(6) =   2
                l(7) =   3
                l(8) =   3
     Q(r) pseudized with 0 coefficients 


     atomic species   valence    mass     pseudopotential
     Pd               18.00   106.42000     Pd( 1.00)
     Pt               32.00   195.08400     Pt( 1.00)

     No symmetry found



   Cartesian axes

     site n.     atom                  positions (alat units)
         1        Pd     tau(   1) = (   0.3985239   0.5303100   0.3921678  )
         2        Pt     tau(   2) = (   0.1293321   0.2200873   1.1023771  )
         3        Pt     tau(   3) = (   0.6676552   0.8406416  -0.3180491  )

     number of k points=   284  Marzari-Vanderbilt smearing, width (Ry)=  0.0200

     Number of k-points >= 100: set verbosity='high' to print them.

     Dense  grid:   140427 G-vectors     FFT dimensions: (  60,  64,  90)

     Smooth grid:    49685 G-vectors     FFT dimensions: (  45,  45,  64)

     Estimated max dynamical RAM per process >       2.61 GB

     Initial potential from superposition of free atoms

     starting charge      81.9994, renormalised to      82.0000
     Starting wfcs are   44 randomized atomic wfcs +    5 random wfcs

     total cpu time spent up to now is       76.1 secs

     Self-consistent Calculation

     iteration #  1     ecut=   110.00 Ry     beta= 0.30
     Davidson diagonalization with overlap
     ethr =  1.00E-02,  avg # of iterations =  3.0

     Threshold (ethr) on eigenvalues was too large:
     Diagonalizing with lowered threshold

     Davidson diagonalization with overlap
     ethr =  3.56E-04,  avg # of iterations =  1.3

     total cpu time spent up to now is      389.1 secs

     total energy              =   -2318.80388001 Ry
     estimated scf accuracy    <       0.29172161 Ry

     iteration #  2     ecut=   110.00 Ry     beta= 0.30
     Davidson diagonalization with overlap
     ethr =  3.56E-04,  avg # of iterations =  2.3

     total cpu time spent up to now is      552.7 secs

     total energy              =   -2318.83754760 Ry
     estimated scf accuracy    <       0.51894570 Ry

     iteration #  3     ecut=   110.00 Ry     beta= 0.30
     Davidson diagonalization with overlap
     ethr =  3.56E-04,  avg # of iterations =  1.7

     total cpu time spent up to now is      697.3 secs

     total energy              =   -2318.89687419 Ry
     estimated scf accuracy    <       0.00883653 Ry

     iteration #  4     ecut=   110.00 Ry     beta= 0.30
     Davidson diagonalization with overlap
     ethr =  1.08E-05,  avg # of iterations =  2.9

     total cpu time spent up to now is      857.0 secs

     total energy              =   -2318.89856658 Ry
     estimated scf accuracy    <       0.01294697 Ry

     iteration #  5     ecut=   110.00 Ry     beta= 0.30
     Davidson diagonalization with overlap
     ethr =  1.08E-05,  avg # of iterations =  1.0

     total cpu time spent up to now is      984.7 secs

     total energy              =   -2318.89935236 Ry
     estimated scf accuracy    <       0.00051628 Ry

     iteration #  6     ecut=   110.00 Ry     beta= 0.30
     Davidson diagonalization with overlap
     ethr =  6.30E-07,  avg # of iterations =  1.4

     total cpu time spent up to now is     1115.7 secs

     total energy              =   -2318.89935564 Ry
     estimated scf accuracy    <       0.00009941 Ry

     iteration #  7     ecut=   110.00 Ry     beta= 0.30
     Davidson diagonalization with overlap
     ethr =  1.21E-07,  avg # of iterations =  1.0

     total cpu time spent up to now is     1243.2 secs

     total energy              =   -2318.89935962 Ry
     estimated scf accuracy    <       0.00000827 Ry

     iteration #  8     ecut=   110.00 Ry     beta= 0.30
     Davidson diagonalization with overlap
     ethr =  1.01E-08,  avg # of iterations =  1.6

     total cpu time spent up to now is     1379.8 secs

     total energy              =   -2318.89936021 Ry
     estimated scf accuracy    <       0.00000028 Ry

     iteration #  9     ecut=   110.00 Ry     beta= 0.30
     Davidson diagonalization with overlap
     ethr =  3.37E-10,  avg # of iterations =  2.0

     total cpu time spent up to now is     1531.6 secs

     total energy              =   -2318.89936028 Ry
     estimated scf accuracy    <       0.00000010 Ry

     iteration # 10     ecut=   110.00 Ry     beta= 0.30
     Davidson diagonalization with overlap
     ethr =  1.26E-10,  avg # of iterations =  1.0

     total cpu time spent up to now is     1658.2 secs

     total energy              =   -2318.89936025 Ry
     estimated scf accuracy    <       0.00000015 Ry

     iteration # 11     ecut=   110.00 Ry     beta= 0.30
     Davidson diagonalization with overlap
     ethr =  1.26E-10,  avg # of iterations =  1.1

     total cpu time spent up to now is     1786.2 secs

     End of self-consistent calculation

     Number of k-points >= 100: set verbosity='high' to print the bands.

     the Fermi energy is    22.8047 ev

!    total energy              =   -2318.89936027 Ry
     estimated scf accuracy    <          1.0E-09 Ry
     smearing contrib. (-TS)   =      -0.00109337 Ry
     internal energy E=F+TS    =   -2318.89826689 Ry

     The total energy is F=E-TS. E is the sum of the following terms:
     one-electron contribution =   -1577.66571340 Ry
     hartree contribution      =     839.84208441 Ry
     xc contribution           =    -175.74803344 Ry
     ewald contribution        =   -1405.32660446 Ry

     convergence has been achieved in  11 iterations

     Forces acting on atoms (cartesian axes, Ry/au):

     atom    1 type  1   force =    -0.00002973    0.00005737   -0.00000111
     atom    2 type  2   force =     0.00292310    0.00330958    0.00721763
     atom    3 type  2   force =    -0.00289337   -0.00336695   -0.00721652

     Total force =     0.011974     Total SCF correction =     0.000023


     Computing stress (Cartesian axis) and pressure

          total   stress  (Ry/bohr**3)                   (kbar)     P=      -14.20
  -0.00005384  -0.00003038  -0.00005111           -7.92       -4.47       -7.52
  -0.00003038  -0.00005929  -0.00006106           -4.47       -8.72       -8.98
  -0.00005111  -0.00006106  -0.00017650           -7.52       -8.98      -25.96


     Writing all to output data dir /home/tenant3/nexus-mat/dft/runs/dft-paper-worker-09/jobs/Pt-Pd-13_PdPt2/tmp/Pt-Pd-13_PdPt2.save/ :
     XML data file, charge density, pseudopotentials, collected wavefunctions

     init_run     :     72.39s CPU     75.79s WALL (       1 calls)
     electrons    :   1688.84s CPU   1710.15s WALL (       1 calls)
     forces       :     27.70s CPU     27.96s WALL (       1 calls)
     stress       :     92.66s CPU     93.38s WALL (       1 calls)

     Called by init_run:
     wfcinit      :     69.59s CPU     70.21s WALL (       1 calls)
     potinit      :      0.29s CPU      0.62s WALL (       1 calls)
     hinit0       :      0.68s CPU      1.38s WALL (       1 calls)

     Called by electrons:
     c_bands      :   1456.46s CPU   1471.87s WALL (      12 calls)
     sum_band     :    221.55s CPU    224.91s WALL (      12 calls)
     v_of_rho     :      1.31s CPU      1.63s WALL (      12 calls)
     newd         :     11.14s CPU     15.16s WALL (      12 calls)
     mix_rho      :      0.15s CPU      0.15s WALL (      12 calls)

     Called by c_bands:
     init_us_2    :     14.43s CPU     14.48s WALL (    7668 calls)
     cegterg      :   1412.51s CPU   1427.45s WALL (    3408 calls)

     Called by *egterg:
     cdiaghg      :     14.03s CPU     14.05s WALL (    8879 calls)
     h_psi        :    808.17s CPU    815.19s WALL (    9447 calls)
     s_psi        :    126.62s CPU    127.16s WALL (    9447 calls)
     g_psi        :      2.72s CPU      2.73s WALL (    5755 calls)

     Called by h_psi:
     h_psi:calbec :    190.05s CPU    190.08s WALL (    9447 calls)
     vloc_psi     :    487.68s CPU    489.42s WALL (    9447 calls)
                                        0.00s GPU  (    9447 calls)
     add_vuspsi   :    126.11s CPU    126.14s WALL (    9447 calls)

     General routines
     calbec       :    374.56s CPU    374.63s WALL (   17683 calls)
     fft          :      0.91s CPU      1.05s WALL (     180 calls)
     ffts         :      0.03s CPU      0.03s WALL (      24 calls)
     fftw         :    507.77s CPU    509.16s WALL (  893416 calls)
     interpolate  :      0.08s CPU      0.10s WALL (      12 calls)


     PWSCF        :  31m22.13s CPU  31m48.16s WALL


   This run was terminated on:   1: 1:33  21Jul2026            

=------------------------------------------------------------------------------=
   JOB DONE.
=------------------------------------------------------------------------------=
