
     Program PWSCF v.7.5 starts on 21Jul2026 at  4:27:59 

     This program is part of the open-source Quantum ESPRESSO suite
     for quantum simulation of materials; please cite
         "P. Giannozzi et al., J. Phys.:Condens. Matter 21 395502 (2009);
         "P. Giannozzi et al., J. Phys.:Condens. Matter 29 465901 (2017);
         "P. Giannozzi et al., J. Chem. Phys. 152 154105 (2020);
          URL http://www.quantum-espresso.org", 
     in publications or presentations arising from this work. More details at
     http://www.quantum-espresso.org/quote

     Serial multi-threaded version, running on    1 processor cores
     7188 MiB available memory on the printing compute node when the environment starts

     Reading input from /home/tenant3/nexus-mat/dft/runs/dft-paper-worker-12/jobs/Pt-Pd-Rh-10_Pd8Pt5Rh3/input.in

     Current dimensions of program PWSCF are:
     Max number of different atomic species (ntypx) = 10
     Max number of k-points (npk) =  40000
     Max angular momentum in pseudopotentials (lmaxx) =  4
     file Pt.pbe-spfn-rrkjus_psl.1.0.0.UPF: wavefunction(s)  5P renormalized


     G-vector sticks info
     --------------------
     sticks:   dense  smooth     PW     G-vecs:    dense   smooth      PW
     Sum        5443    2731    741               727635   257249   36483

     Using Slab Decomposition



     bravais-lattice index     =            0
     lattice parameter (alat)  =       7.3583  a.u.
     unit-cell volume          =    1650.6640 (a.u.)^3
     number of atoms/cell      =           16
     number of atomic types    =            3
     number of electrons       =       355.00
     number of Kohn-Sham states=          214
     kinetic-energy cutoff     =     110.0000  Ry
     charge density cutoff     =     880.0000  Ry
     scf convergence threshold =      1.0E-08
     mixing beta               =       0.3000
     number of iterations used =            8  plain     mixing
     Exchange-correlation= PBE
                           (   1   4   3   4   0   0   0)

     celldm(1)=   7.358272  celldm(2)=   0.000000  celldm(3)=   0.000000
     celldm(4)=   0.000000  celldm(5)=   0.000000  celldm(6)=   0.000000

     crystal axes: (cart. coord. in units of alat)
               a(1) = (   1.000000   0.000000   0.000080 )  
               a(2) = (  -0.001133   1.438966  -0.002654 )  
               a(3) = (   0.000000   0.000000   2.879258 )  

     reciprocal axes: (cart. coord. in units 2 pi/alat)
               b(1) = (  1.000000  0.000787 -0.000000 )  
               b(2) = (  0.000000  0.694943  0.000000 )  
               b(3) = ( -0.000028  0.000641  0.347312 )  


     PseudoPot. # 1 for Pd read from file:
     /home/tenant3/nexus-mat/dft/pseudo/SSSP_1.3.0_PBE_precision/Pd_ONCV_PBE-1.0.oncvpsp.upf
     MD5 check sum: eb77f42b51d86fb18e25f68156a31cf1
     Pseudo is Norm-conserving, Zval = 18.0
     Generated using ONCVPSP code by D. R. Hamann
     Using radial grid of 1410 points,  6 beta functions with: 
                l(1) =   0
                l(2) =   0
                l(3) =   1
                l(4) =   1
                l(5) =   2
                l(6) =   2

     PseudoPot. # 2 for Pt read from file:
     /home/tenant3/nexus-mat/dft/pseudo/SSSP_1.3.0_PBE_precision/Pt.pbe-spfn-rrkjus_psl.1.0.0.UPF
     MD5 check sum: ed006ba81d2b6b3b17616bb61ae12f04
     Pseudo is Ultrasoft + core correction, Zval = 32.0
     Generated using "atomic" code by A. Dal Corso  v.5.1
     Using radial grid of 1277 points,  8 beta functions with: 
                l(1) =   0
                l(2) =   0
                l(3) =   1
                l(4) =   1
                l(5) =   2
                l(6) =   2
                l(7) =   3
                l(8) =   3
     Q(r) pseudized with 0 coefficients 


     PseudoPot. # 3 for Rh read from file:
     /home/tenant3/nexus-mat/dft/pseudo/SSSP_1.3.0_PBE_precision/Rh_ONCV_PBE-1.0.oncvpsp.upf
     MD5 check sum: ba07c69523b14cacd10683cd4c4284c1
     Pseudo is Norm-conserving, Zval = 17.0
     Generated using ONCVPSP code by D. R. Hamann
     Using radial grid of 1442 points,  6 beta functions with: 
                l(1) =   0
                l(2) =   0
                l(3) =   1
                l(4) =   1
                l(5) =   2
                l(6) =   2

     atomic species   valence    mass     pseudopotential
     Pd               18.00   106.42000     Pd( 1.00)
     Pt               32.00   195.08400     Pt( 1.00)
     Rh               17.00   102.90549     Rh( 1.00)

     No symmetry found



   Cartesian axes

     site n.     atom                  positions (alat units)
         1        Pd     tau(   1) = (   0.8075080   0.5072744   2.5211077  )
         2        Pd     tau(   2) = (   0.3072288   0.8621324   0.0001510  )
         3        Pd     tau(   3) = (   0.8075864   0.4822278   1.0901013  )
         4        Pd     tau(   4) = (   0.3078613   0.1273992   0.7316499  )
         5        Pd     tau(   5) = (   0.3078626   0.1284579   1.4463011  )
         6        Pd     tau(   6) = (   0.8069825   1.2142888   1.8042818  )
         7        Pd     tau(   7) = (   0.8069799   1.2142749   0.3645665  )
         8        Pd     tau(   8) = (   0.3072314   0.8610774   2.1648576  )
         9        Pt     tau(   9) = (   0.8075527   0.4947591   0.3659906  )
        10        Pt     tau(  10) = (   0.3072867   0.8519095   0.7290133  )
        11        Pt     tau(  11) = (   0.3073011   0.8483898   1.4468709  )
        12        Pt     tau(  12) = (   0.3077961   0.1411400   2.1642225  )
        13        Pt     tau(  13) = (   0.3078057   0.1376092   0.0028670  )
        14        Rh     tau(  14) = (   0.8069186   1.2299504   2.5223388  )
        15        Rh     tau(  15) = (   0.8075440   0.4947728   1.8055806  )
        16        Rh     tau(  16) = (   0.8070486   1.1984852   1.0861526  )

     number of k points=    53  Marzari-Vanderbilt smearing, width (Ry)=  0.0200
                       cart. coord. in units 2pi/alat
        k(    1) = (   0.0000000   0.0000000   0.0000000), wk =   0.0190476
        k(    2) = (  -0.0000092   0.0002135   0.1157706), wk =   0.0380952
        k(    3) = (   0.0000000   0.1389887   0.0000000), wk =   0.0380952
        k(    4) = (  -0.0000092   0.1392022   0.1157706), wk =   0.0380952
        k(    5) = (   0.0000092   0.1387752  -0.1157706), wk =   0.0380952
        k(    6) = (   0.0000000   0.2779774   0.0000000), wk =   0.0380952
        k(    7) = (  -0.0000092   0.2781909   0.1157706), wk =   0.0380952
        k(    8) = (   0.0000092   0.2777639  -0.1157706), wk =   0.0380952
        k(    9) = (   0.1428571   0.0001124   0.0000000), wk =   0.0380952
        k(   10) = (   0.1428479   0.0003259   0.1157706), wk =   0.0380952
        k(   11) = (   0.1428664  -0.0001011  -0.1157706), wk =   0.0380952
        k(   12) = (   0.1428571   0.1391011   0.0000000), wk =   0.0380952
        k(   13) = (   0.1428479   0.1393146   0.1157706), wk =   0.0380952
        k(   14) = (   0.1428664   0.1388876  -0.1157706), wk =   0.0380952
        k(   15) = (   0.1428571   0.2780898   0.0000000), wk =   0.0380952
        k(   16) = (   0.1428479   0.2783033   0.1157706), wk =   0.0380952
        k(   17) = (   0.1428664   0.2778763  -0.1157706), wk =   0.0380952
        k(   18) = (   0.1428571  -0.2778649   0.0000000), wk =   0.0380952
        k(   19) = (   0.1428479  -0.2776514   0.1157706), wk =   0.0380952
        k(   20) = (   0.1428664  -0.2780785  -0.1157706), wk =   0.0380952
        k(   21) = (   0.1428571  -0.1388763   0.0000000), wk =   0.0380952
        k(   22) = (   0.1428479  -0.1386627   0.1157706), wk =   0.0380952
        k(   23) = (   0.1428664  -0.1390898  -0.1157706), wk =   0.0380952
        k(   24) = (   0.2857143   0.0002249   0.0000000), wk =   0.0380952
        k(   25) = (   0.2857050   0.0004384   0.1157706), wk =   0.0380952
        k(   26) = (   0.2857235   0.0000114  -0.1157706), wk =   0.0380952
        k(   27) = (   0.2857143   0.1392136   0.0000000), wk =   0.0380952
        k(   28) = (   0.2857050   0.1394271   0.1157706), wk =   0.0380952
        k(   29) = (   0.2857235   0.1390000  -0.1157706), wk =   0.0380952
        k(   30) = (   0.2857143   0.2782023   0.0000000), wk =   0.0380952
        k(   31) = (   0.2857050   0.2784158   0.1157706), wk =   0.0380952
        k(   32) = (   0.2857235   0.2779887  -0.1157706), wk =   0.0380952
        k(   33) = (   0.2857143  -0.2777525   0.0000000), wk =   0.0380952
        k(   34) = (   0.2857050  -0.2775390   0.1157706), wk =   0.0380952
        k(   35) = (   0.2857235  -0.2779660  -0.1157706), wk =   0.0380952
        k(   36) = (   0.2857143  -0.1387638   0.0000000), wk =   0.0380952
        k(   37) = (   0.2857050  -0.1385503   0.1157706), wk =   0.0380952
        k(   38) = (   0.2857235  -0.1389773  -0.1157706), wk =   0.0380952
        k(   39) = (   0.4285714   0.0003373   0.0000000), wk =   0.0380952
        k(   40) = (   0.4285622   0.0005508   0.1157706), wk =   0.0380952
        k(   41) = (   0.4285807   0.0001238  -0.1157706), wk =   0.0380952
        k(   42) = (   0.4285714   0.1393260   0.0000000), wk =   0.0380952
        k(   43) = (   0.4285622   0.1395395   0.1157706), wk =   0.0380952
        k(   44) = (   0.4285807   0.1391125  -0.1157706), wk =   0.0380952
        k(   45) = (   0.4285714   0.2783147   0.0000000), wk =   0.0380952
        k(   46) = (   0.4285622   0.2785282   0.1157706), wk =   0.0380952
        k(   47) = (   0.4285807   0.2781012  -0.1157706), wk =   0.0380952
        k(   48) = (   0.4285714  -0.2776401   0.0000000), wk =   0.0380952
        k(   49) = (   0.4285622  -0.2774266   0.1157706), wk =   0.0380952
        k(   50) = (   0.4285807  -0.2778536  -0.1157706), wk =   0.0380952
        k(   51) = (   0.4285714  -0.1386514   0.0000000), wk =   0.0380952
        k(   52) = (   0.4285622  -0.1384379   0.1157706), wk =   0.0380952
        k(   53) = (   0.4285807  -0.1388649  -0.1157706), wk =   0.0380952

     Dense  grid:   727635 G-vectors     FFT dimensions: (  72, 100, 216)

     Smooth grid:   257249 G-vectors     FFT dimensions: (  50,  72, 144)

     Estimated max dynamical RAM per process >      12.48 GB

     Initial potential from superposition of free atoms

     starting charge     354.9952, renormalised to     355.0000
     Starting wfcs are  195 randomized atomic wfcs +   19 random wfcs

     total cpu time spent up to now is      873.4 secs

     Self-consistent Calculation

     iteration #  1     ecut=   110.00 Ry     beta= 0.30
     Davidson diagonalization with overlap
     ethr =  1.00E-02,  avg # of iterations =  3.1

     total cpu time spent up to now is     4093.4 secs

     total energy              =   -7838.03268138 Ry
     estimated scf accuracy    <       6.15322915 Ry

     iteration #  2     ecut=   110.00 Ry     beta= 0.30
     Davidson diagonalization with overlap
     ethr =  1.73E-03,  avg # of iterations =  3.2

     total cpu time spent up to now is     7220.6 secs

     total energy              =   -7835.91093740 Ry
     estimated scf accuracy    <     111.74193100 Ry

     iteration #  3     ecut=   110.00 Ry     beta= 0.30
     Davidson diagonalization with overlap
     ethr =  1.73E-03,  avg # of iterations =  3.1

     total cpu time spent up to now is     9844.8 secs

     total energy              =   -7839.77471488 Ry
     estimated scf accuracy    <      22.32317281 Ry

     iteration #  4     ecut=   110.00 Ry     beta= 0.30
     Davidson diagonalization with overlap
     ethr =  1.73E-03,  avg # of iterations =  1.3

     total cpu time spent up to now is    11899.0 secs

     total energy              =   -7840.58462519 Ry
     estimated scf accuracy    <       2.51366586 Ry

     iteration #  5     ecut=   110.00 Ry     beta= 0.30
     Davidson diagonalization with overlap
     ethr =  7.08E-04,  avg # of iterations =  1.2

     total cpu time spent up to now is    13801.2 secs

     total energy              =   -7840.65799531 Ry
     estimated scf accuracy    <       0.41708866 Ry

     iteration #  6     ecut=   110.00 Ry     beta= 0.30
     Davidson diagonalization with overlap
     ethr =  1.17E-04,  avg # of iterations =  2.6

     total cpu time spent up to now is    15907.2 secs

     total energy              =   -7840.64712968 Ry
     estimated scf accuracy    <       0.62400295 Ry

     iteration #  7     ecut=   110.00 Ry     beta= 0.30
     Davidson diagonalization with overlap
     ethr =  1.17E-04,  avg # of iterations =  1.6

     total cpu time spent up to now is    17911.4 secs

     total energy              =   -7840.65582063 Ry
     estimated scf accuracy    <       0.52894383 Ry

     iteration #  8     ecut=   110.00 Ry     beta= 0.30
     Davidson diagonalization with overlap
     ethr =  1.17E-04,  avg # of iterations =  1.2

     total cpu time spent up to now is    19808.2 secs

     total energy              =   -7840.65655151 Ry
     estimated scf accuracy    <       0.08096172 Ry

     iteration #  9     ecut=   110.00 Ry     beta= 0.30
     Davidson diagonalization with overlap
     ethr =  2.28E-05,  avg # of iterations =  4.1

     total cpu time spent up to now is    21973.0 secs

     total energy              =   -7840.65621757 Ry
     estimated scf accuracy    <       0.16611277 Ry

     iteration # 10     ecut=   110.00 Ry     beta= 0.30
     Davidson diagonalization with overlap
     ethr =  2.28E-05,  avg # of iterations =  1.4

     total cpu time spent up to now is    23896.3 secs

     total energy              =   -7840.66426684 Ry
     estimated scf accuracy    <       0.01624400 Ry

     iteration # 11     ecut=   110.00 Ry     beta= 0.30
     Davidson diagonalization with overlap
     ethr =  4.58E-06,  avg # of iterations =  4.9

     total cpu time spent up to now is    26040.7 secs

     total energy              =   -7840.66310079 Ry
     estimated scf accuracy    <       0.01724639 Ry

     iteration # 12     ecut=   110.00 Ry     beta= 0.30
     Davidson diagonalization with overlap
     ethr =  4.58E-06,  avg # of iterations =  1.2

     total cpu time spent up to now is    27949.0 secs

     total energy              =   -7840.66391202 Ry
     estimated scf accuracy    <       0.00451495 Ry

     iteration # 13     ecut=   110.00 Ry     beta= 0.30
     Davidson diagonalization with overlap
     ethr =  1.27E-06,  avg # of iterations =  2.0

     total cpu time spent up to now is    29973.8 secs

     total energy              =   -7840.66401269 Ry
     estimated scf accuracy    <       0.00091398 Ry

     iteration # 14     ecut=   110.00 Ry     beta= 0.30
     Davidson diagonalization with overlap
     ethr =  2.57E-07,  avg # of iterations =  1.1

     total cpu time spent up to now is    31850.8 secs

     total energy              =   -7840.66404828 Ry
     estimated scf accuracy    <       0.00030957 Ry

     iteration # 15     ecut=   110.00 Ry     beta= 0.30
     Davidson diagonalization with overlap
     ethr =  8.72E-08,  avg # of iterations =  1.2

     total cpu time spent up to now is    33752.2 secs

     total energy              =   -7840.66405860 Ry
     estimated scf accuracy    <       0.00007898 Ry

     iteration # 16     ecut=   110.00 Ry     beta= 0.30
     Davidson diagonalization with overlap
     ethr =  2.22E-08,  avg # of iterations =  1.0

     total cpu time spent up to now is    35592.9 secs

     total energy              =   -7840.66406156 Ry
     estimated scf accuracy    <       0.00002795 Ry

     iteration # 17     ecut=   110.00 Ry     beta= 0.30
     Davidson diagonalization with overlap
     ethr =  7.87E-09,  avg # of iterations =  1.2

     total cpu time spent up to now is    37479.9 secs

     total energy              =   -7840.66405530 Ry
     estimated scf accuracy    <       0.00058666 Ry

     iteration # 18     ecut=   110.00 Ry     beta= 0.30
     Davidson diagonalization with overlap
     ethr =  7.87E-09,  avg # of iterations =  1.0

     total cpu time spent up to now is    39333.6 secs

     total energy              =   -7840.66406441 Ry
     estimated scf accuracy    <       0.00001576 Ry

     iteration # 19     ecut=   110.00 Ry     beta= 0.30
     Davidson diagonalization with overlap
     ethr =  4.44E-09,  avg # of iterations =  1.0

     total cpu time spent up to now is    41179.5 secs

     total energy              =   -7840.66406464 Ry
     estimated scf accuracy    <       0.00000420 Ry

     iteration # 20     ecut=   110.00 Ry     beta= 0.30
     Davidson diagonalization with overlap
     ethr =  1.18E-09,  avg # of iterations =  1.1

     total cpu time spent up to now is    43051.4 secs

     total energy              =   -7840.66406497 Ry
     estimated scf accuracy    <       0.00000448 Ry

     iteration # 21     ecut=   110.00 Ry     beta= 0.30
     Davidson diagonalization with overlap
     ethr =  1.18E-09,  avg # of iterations =  1.0

     total cpu time spent up to now is    44893.8 secs

     total energy              =   -7840.66406524 Ry
     estimated scf accuracy    <       0.00000063 Ry

     iteration # 22     ecut=   110.00 Ry     beta= 0.30
     Davidson diagonalization with overlap
     ethr =  1.78E-10,  avg # of iterations =  1.0

     total cpu time spent up to now is    46728.1 secs

     total energy              =   -7840.66406523 Ry
     estimated scf accuracy    <       0.00000099 Ry

     iteration # 23     ecut=   110.00 Ry     beta= 0.30
     Davidson diagonalization with overlap
     ethr =  1.78E-10,  avg # of iterations =  1.0

     total cpu time spent up to now is    48570.6 secs

     total energy              =   -7840.66406525 Ry
     estimated scf accuracy    <       0.00000084 Ry

     iteration # 24     ecut=   110.00 Ry     beta= 0.30
     Davidson diagonalization with overlap
     ethr =  1.78E-10,  avg # of iterations =  1.0

     total cpu time spent up to now is    50402.3 secs

     total energy              =   -7840.66406524 Ry
     estimated scf accuracy    <       0.00000131 Ry

     iteration # 25     ecut=   110.00 Ry     beta= 0.30
     Davidson diagonalization with overlap
     ethr =  1.78E-10,  avg # of iterations =  1.0

     total cpu time spent up to now is    52238.8 secs

     total energy              =   -7840.66406526 Ry
     estimated scf accuracy    <       0.00000042 Ry

     iteration # 26     ecut=   110.00 Ry     beta= 0.30
     Davidson diagonalization with overlap
     ethr =  1.20E-10,  avg # of iterations =  1.0

     total cpu time spent up to now is    54071.3 secs

     total energy              =   -7840.66406527 Ry
     estimated scf accuracy    <       0.00000006 Ry

     iteration # 27     ecut=   110.00 Ry     beta= 0.30
     Davidson diagonalization with overlap
     ethr =  1.78E-11,  avg # of iterations =  1.0

     total cpu time spent up to now is    55907.0 secs

     total energy              =   -7840.66406526 Ry
     estimated scf accuracy    <       0.00000081 Ry

     iteration # 28     ecut=   110.00 Ry     beta= 0.30
     Davidson diagonalization with overlap
     ethr =  1.78E-11,  avg # of iterations =  1.0

     total cpu time spent up to now is    57736.6 secs

     total energy              =   -7840.66406528 Ry
     estimated scf accuracy    <       0.00000004 Ry

     iteration # 29     ecut=   110.00 Ry     beta= 0.30
     Davidson diagonalization with overlap
     ethr =  1.09E-11,  avg # of iterations =  1.0

     total cpu time spent up to now is    59564.2 secs

     End of self-consistent calculation

          k = 0.0000 0.0000 0.0000 ( 32179 PWs)   bands (ev):

   -76.8772 -76.8771 -76.8350 -76.8345 -76.7107 -62.8876 -62.8553 -62.8547
   -62.8300 -62.8280 -62.8258 -62.7827 -62.7797 -56.7772 -56.7770 -56.7519
   -45.2866 -45.2865 -45.2819 -45.2818 -45.2779 -45.2779 -45.2613 -45.2612
   -45.2601 -45.2601 -45.2550 -45.2550 -45.2540 -45.2540 -45.2404 -45.2404
   -45.2372 -45.2372 -45.2341 -45.2340 -45.2142 -45.2142 -45.2121 -45.2121
   -45.2093 -45.2092 -45.2082 -45.2081 -45.1089 -45.1065 -45.1045 -45.0851
   -45.0828 -45.0749 -45.0746 -31.0580 -31.0497 -31.0004 -30.9921 -30.9885
   -30.9842 -30.9737 -30.9714 -30.9562 -30.9489 -30.9147 -30.9112 -30.8233
   -30.8033 -30.7948 -28.6397 -28.6331 -28.6317 -28.6128 -28.6046 -28.5967
   -28.5932 -28.5843 -28.5788 -28.5708 -28.5691 -28.5670 -28.5429 -28.5376
   -28.5169 -28.5086 -28.5036 -28.5028 -28.4677 -28.4645 -28.4525 -28.4394
   -28.4206 -28.4055 -24.6455 -24.6454 -24.6310 -24.6263 -24.6259 -24.6202
   -24.6165 -24.6058 -24.5793  13.3949  14.6884  14.9032  15.6946  15.7737
    15.8821  16.0670  16.0746  16.1129  16.4415  16.4851  16.5201  16.5277
    16.6015  16.6287  16.7235  16.8008  16.8168  16.8552  16.8625  17.0425
    17.0472  17.2520  17.3574  17.5632  17.7275  17.8216  17.8918  18.0153
    18.0478  18.0874  18.1258  18.1297  18.2479  18.4151  18.4743  18.5075
    18.6208  18.9323  18.9550  18.9655  18.9689  18.9718  18.9881  19.2017
    19.3752  19.3780  19.4323  19.4431  19.4496  19.4888  19.6071  19.7347
    19.9328  20.0106  20.0898  20.1544  20.2868  20.3033  20.3105  20.4504
    20.4771  20.5916  20.6211  20.9256  20.9660  21.0605  21.0773  21.0996
    21.1060  21.2182  21.3543  21.3705  21.4336  21.5730  21.6692  21.7054
    21.7209  21.7502  21.7781  21.9312  22.2429  22.3246  23.1358  23.4420
    23.4554  23.7926  23.9602  23.9910  24.0406  24.1310  24.2694  24.3568
    24.5823  28.5060  28.5563  28.6127  28.7452  30.7641  31.5274  31.9456
    32.1581  32.5517  32.8836  33.4502  33.5227  33.5662  33.6684  33.7301
    33.7808  33.8910  33.9921  33.9960  33.9988  34.0589

          k =-0.0000 0.0002 0.1158 ( 32197 PWs)   bands (ev):

   -76.8772 -76.8771 -76.8350 -76.8345 -76.7107 -62.8876 -62.8553 -62.8547
   -62.8300 -62.8279 -62.8258 -62.7827 -62.7797 -56.7772 -56.7770 -56.7519
   -45.2866 -45.2865 -45.2819 -45.2818 -45.2779 -45.2779 -45.2613 -45.2612
   -45.2601 -45.2601 -45.2550 -45.2550 -45.2540 -45.2540 -45.2404 -45.2404
   -45.2372 -45.2372 -45.2341 -45.2340 -45.2142 -45.2142 -45.2121 -45.2121
   -45.2093 -45.2092 -45.2082 -45.2081 -45.1089 -45.1065 -45.1045 -45.0851
   -45.0828 -45.0749 -45.0746 -31.0582 -31.0494 -30.9998 -30.9940 -30.9873
   -30.9844 -30.9734 -30.9715 -30.9563 -30.9489 -30.9148 -30.9112 -30.8233
   -30.8033 -30.7948 -28.6395 -28.6327 -28.6317 -28.6151 -28.6013 -28.6008
   -28.5943 -28.5790 -28.5760 -28.5706 -28.5690 -28.5677 -28.5503 -28.5384
   -28.5159 -28.5129 -28.4957 -28.4927 -28.4756 -28.4747 -28.4489 -28.4336
   -28.4209 -28.4070 -24.6456 -24.6454 -24.6311 -24.6263 -24.6259 -24.6193
   -24.6174 -24.6058 -24.5793  13.5354  14.1093  15.5631  15.7808  15.8652
    15.9970  16.1028  16.1450  16.1473  16.1851  16.1904  16.2152  16.4174
    16.4478  16.5040  16.5666  16.8495  17.1091  17.1153  17.1901  17.2366
    17.2921  17.2959  17.5329  17.5614  17.5689  17.7498  17.7745  17.8738
    17.9112  17.9467  18.0458  18.1447  18.1720  18.2994  18.4176  18.4417
    18.5497  18.5559  18.7192  18.7261  18.7737  18.8508  18.9164  19.3010
    19.3871  19.4956  19.6222  19.6992  19.7569  19.8567  19.9936  20.0532
    20.1231  20.1565  20.2663  20.2701  20.3076  20.3261  20.3674  20.4669
    20.5298  20.5946  20.6208  20.6945  20.8716  20.9067  21.0967  21.1239
    21.2630  21.2665  21.3556  21.3864  21.4082  21.4492  21.4698  21.5978
    21.6261  21.6578  21.7082  21.8157  22.1092  22.1838  22.2582  23.4981
    23.5725  23.7182  23.8699  24.0226  24.1252  24.2786  24.3481  25.2245
    25.3329  26.8229  26.8625  30.2669  30.4286  31.3579  31.3994  32.0296
    32.2894  32.3740  32.4015  32.7148  33.0611  33.1504  33.3915  33.5021
    33.6818  33.8041  33.8767  34.0188  34.0825  34.1219

          k = 0.0000 0.1390 0.0000 ( 32183 PWs)   bands (ev):

   -76.8772 -76.8771 -76.8350 -76.8345 -76.7107 -62.8876 -62.8553 -62.8547
   -62.8300 -62.8279 -62.8258 -62.7827 -62.7797 -56.7772 -56.7771 -56.7519
   -45.2866 -45.2865 -45.2819 -45.2818 -45.2779 -45.2779 -45.2613 -45.2612
   -45.2601 -45.2601 -45.2550 -45.2550 -45.2540 -45.2540 -45.2404 -45.2404
   -45.2372 -45.2372 -45.2341 -45.2340 -45.2142 -45.2142 -45.2121 -45.2121
   -45.2093 -45.2092 -45.2082 -45.2081 -45.1089 -45.1065 -45.1045 -45.0851
   -45.0828 -45.0749 -45.0746 -31.0578 -31.0497 -30.9999 -30.9927 -30.9879
   -30.9835 -30.9726 -30.9702 -30.9567 -30.9480 -30.9138 -30.9109 -30.8225
   -30.8034 -30.7948 -28.6393 -28.6337 -28.6323 -28.6114 -28.6049 -28.5968
   -28.5948 -28.5846 -28.5804 -28.5712 -28.5686 -28.5672 -28.5419 -28.5381
   -28.5171 -28.5096 -28.5038 -28.5036 -28.4677 -28.4650 -28.4522 -28.4392
   -28.4210 -28.4057 -24.6455 -24.6454 -24.6317 -24.6275 -24.6268 -24.6202
   -24.6166 -24.6058 -24.5801  13.6220  14.8680  15.0492  15.8335  15.9141
    16.0136  16.1782  16.2150  16.2350  16.2865  16.4697  16.5718  16.6357
    16.6866  16.7137  16.7362  16.7814  16.7996  17.0182  17.0417  17.0694
    17.1267  17.2569  17.3534  17.5358  17.5985  17.6514  17.7366  17.8029
    17.8591  17.8688  17.9028  18.0827  18.2938  18.4280  18.5524  18.5797
    18.7116  18.7270  18.7934  19.0067  19.0164  19.0343  19.0561  19.2404
    19.2445  19.3154  19.4214  19.4269  19.6176  19.6806  19.7099  19.7336
    19.8839  20.0089  20.1937  20.2757  20.3001  20.3286  20.3349  20.4950
    20.5334  20.5631  20.6682  20.7234  20.7342  20.7662  20.8488  20.9945
    21.0534  21.0679  21.0981  21.2377  21.2605  21.4187  21.4516  21.5768
    21.6207  21.6356  21.7646  21.8458  21.8804  22.0003  22.0253  22.1006
    22.2555  23.5267  23.7229  24.2096  24.2713  25.4148  25.5896  26.3717
    26.3989  28.7833  28.8776  28.9176  29.0930  31.2417  31.3521  31.7346
    32.0064  32.0347  32.3050  32.4731  32.5375  32.5893  32.6065  32.7765
    32.9884  33.5065  33.7922  34.0957  34.1434  34.1508

          k =-0.0000 0.1392 0.1158 ( 32176 PWs)   bands (ev):

   -76.8772 -76.8771 -76.8350 -76.8345 -76.7107 -62.8876 -62.8553 -62.8547
   -62.8300 -62.8279 -62.8258 -62.7827 -62.7797 -56.7772 -56.7771 -56.7519
   -45.2866 -45.2865 -45.2819 -45.2818 -45.2779 -45.2779 -45.2613 -45.2612
   -45.2601 -45.2601 -45.2550 -45.2550 -45.2540 -45.2540 -45.2404 -45.2404
   -45.2372 -45.2372 -45.2341 -45.2340 -45.2142 -45.2142 -45.2121 -45.2121
   -45.2093 -45.2092 -45.2082 -45.2081 -45.1089 -45.1065 -45.1045 -45.0851
   -45.0828 -45.0749 -45.0746 -31.0581 -31.0493 -30.9993 -30.9943 -30.9869
   -30.9838 -30.9723 -30.9703 -30.9568 -30.9480 -30.9138 -30.9109 -30.8225
   -30.8034 -30.7948 -28.6390 -28.6332 -28.6320 -28.6145 -28.6022 -28.6003
   -28.5971 -28.5805 -28.5750 -28.5705 -28.5693 -28.5668 -28.5501 -28.5388
   -28.5165 -28.5131 -28.4955 -28.4942 -28.4754 -28.4753 -28.4488 -28.4333
   -28.4214 -28.4072 -24.6455 -24.6454 -24.6317 -24.6275 -24.6268 -24.6194
   -24.6174 -24.6058 -24.5801  13.7633  14.3005  15.7171  15.8854  15.9726
    16.0763  16.1259  16.2600  16.2971  16.2999  16.3338  16.3571  16.4510
    16.5184  16.5750  16.6509  16.7473  16.9531  17.0506  17.1959  17.2223
    17.3380  17.4601  17.4904  17.5037  17.5820  17.5904  17.6579  17.6856
    17.7557  17.9354  17.9420  18.0712  18.1131  18.2695  18.3635  18.4364
    18.4910  18.6367  18.6931  18.7498  18.8436  18.8965  19.0093  19.5318
    19.6519  19.6985  19.7233  19.7472  19.7864  19.7991  19.8549  19.8709
    19.9206  19.9947  20.0579  20.1840  20.2497  20.2501  20.3604  20.4308
    20.5136  20.5912  20.6618  20.6674  20.7076  20.7837  20.9887  21.0161
    21.0566  21.1337  21.1879  21.2838  21.3347  21.4433  21.4456  21.4470
    21.5983  21.6107  21.6940  21.7090  21.8560  22.0500  22.0908  22.1731
    22.2997  22.3559  22.6392  25.0746  25.5882  25.7236  26.0458  26.0811
    26.5376  27.1391  27.2597  30.5402  30.5984  30.6785  31.2510  31.9740
    32.0652  32.0989  32.2349  32.2503  32.4153  32.4417  32.5103  32.8757
    33.0810  33.1331  33.5243  33.5714  33.6617  33.7190

          k = 0.0000 0.1388-0.1158 ( 32173 PWs)   bands (ev):

   -76.8772 -76.8771 -76.8350 -76.8345 -76.7107 -62.8876 -62.8553 -62.8547
   -62.8300 -62.8279 -62.8258 -62.7827 -62.7797 -56.7772 -56.7771 -56.7519
   -45.2866 -45.2865 -45.2819 -45.2818 -45.2779 -45.2779 -45.2613 -45.2612
   -45.2601 -45.2601 -45.2550 -45.2550 -45.2540 -45.2540 -45.2404 -45.2404
   -45.2372 -45.2372 -45.2341 -45.2340 -45.2142 -45.2142 -45.2121 -45.2121
   -45.2093 -45.2092 -45.2082 -45.2081 -45.1089 -45.1065 -45.1045 -45.0851
   -45.0828 -45.0749 -45.0746 -31.0580 -31.0493 -30.9998 -30.9931 -30.9876
   -30.9837 -30.9722 -30.9705 -30.9567 -30.9480 -30.9139 -30.9109 -30.8225
   -30.8034 -30.7948 -28.6391 -28.6333 -28.6323 -28.6139 -28.6018 -28.6015
   -28.5953 -28.5809 -28.5759 -28.5706 -28.5687 -28.5677 -28.5495 -28.5392
   -28.5161 -28.5138 -28.4957 -28.4936 -28.4753 -28.4751 -28.4488 -28.4336
   -28.4214 -28.4072 -24.6455 -24.6454 -24.6317 -24.6275 -24.6268 -24.6192
   -24.6176 -24.6058 -24.5801  13.7510  14.3347  15.5777  15.9198  16.0148
    16.0825  16.1783  16.2155  16.3027  16.3184  16.3463  16.3556  16.4832
    16.5539  16.5827  16.6274  16.7652  16.8800  17.0521  17.1384  17.2414
    17.2845  17.4325  17.4641  17.5461  17.6124  17.6403  17.6993  17.7077
    17.7657  17.9420  17.9464  18.0369  18.0881  18.2901  18.3779  18.4186
    18.4832  18.6164  18.6912  18.7363  18.8519  18.9036  19.0073  19.5418
    19.6479  19.6892  19.7281  19.7399  19.7951  19.8257  19.8445  19.8518
    19.9237  19.9837  20.0668  20.1952  20.2432  20.2726  20.3681  20.4149
    20.5160  20.5700  20.6534  20.6633  20.7142  20.7741  20.9575  20.9949
    21.0912  21.1310  21.2203  21.2868  21.3786  21.4328  21.4536  21.4642
    21.5746  21.5784  21.6874  21.7172  21.8637  22.0576  22.0860  22.1972
    22.2783  22.3093  22.6532  25.2335  25.5074  25.7347  25.9805  26.0657
    26.5015  27.1675  27.2824  30.2479  30.5650  31.0350  31.4706  31.5849
    32.0791  32.1671  32.2522  32.4049  32.4446  32.4590  32.6304  32.6861
    33.0292  33.1411  33.5207  33.5640  33.6391  33.7089

          k = 0.0000 0.2780 0.0000 ( 32163 PWs)   bands (ev):

   -76.8772 -76.8771 -76.8350 -76.8345 -76.7107 -62.8876 -62.8553 -62.8547
   -62.8300 -62.8279 -62.8258 -62.7827 -62.7797 -56.7772 -56.7771 -56.7519
   -45.2866 -45.2865 -45.2819 -45.2818 -45.2779 -45.2779 -45.2613 -45.2612
   -45.2601 -45.2601 -45.2550 -45.2550 -45.2540 -45.2540 -45.2404 -45.2404
   -45.2372 -45.2372 -45.2341 -45.2340 -45.2142 -45.2142 -45.2121 -45.2121
   -45.2093 -45.2092 -45.2082 -45.2081 -45.1089 -45.1065 -45.1045 -45.0851
   -45.0828 -45.0749 -45.0746 -31.0575 -31.0495 -30.9990 -30.9935 -30.9871
   -30.9824 -30.9708 -30.9683 -30.9575 -30.9467 -30.9123 -30.9104 -30.8211
   -30.8034 -30.7948 -28.6388 -28.6348 -28.6335 -28.6091 -28.6052 -28.5974
   -28.5966 -28.5851 -28.5835 -28.5717 -28.5686 -28.5669 -28.5404 -28.5388
   -28.5176 -28.5110 -28.5056 -28.5036 -28.4675 -28.4656 -28.4517 -28.4390
   -28.4218 -28.4061 -24.6455 -24.6454 -24.6330 -24.6295 -24.6282 -24.6201
   -24.6167 -24.6059 -24.5814  14.2238  14.9922  15.3865  15.9464  16.0941
    16.1934  16.2405  16.2757  16.4334  16.4756  16.5740  16.6178  16.6885
    16.7691  16.8099  16.8715  16.9217  16.9578  16.9639  17.0359  17.1162
    17.1417  17.2297  17.3640  17.3874  17.4135  17.5011  17.6042  17.6220
    17.6586  17.8840  18.1473  18.1745  18.2437  18.3280  18.3481  18.3510
    18.6925  18.7923  18.9072  18.9926  19.0078  19.1542  19.1886  19.1999
    19.3732  19.4088  19.5710  19.5896  19.6244  19.6262  19.7553  19.7670
    19.8239  19.9140  19.9702  19.9800  19.9996  20.1658  20.2121  20.2429
    20.2545  20.3024  20.3778  20.3971  20.5334  20.5695  20.6883  20.7249
    20.7428  20.7864  20.8669  21.0233  21.0237  21.1730  21.1963  21.2635
    21.2724  21.3096  21.3430  21.5092  21.6824  21.6918  21.7245  22.2013
    22.2962  23.7205  23.8980  24.0118  24.1568  27.4701  27.5265  28.8737
    28.8933  29.4081  29.5668  29.6203  29.8966  29.9437  29.9582  30.7762
    30.9288  30.9915  31.1688  31.1983  31.5404  32.1495  32.2742  33.0500
    33.1464  33.2524  33.4322  33.5003  33.6141  33.7197

          k =-0.0000 0.2782 0.1158 ( 32163 PWs)   bands (ev):

   -76.8772 -76.8771 -76.8350 -76.8345 -76.7107 -62.8876 -62.8553 -62.8547
   -62.8300 -62.8279 -62.8258 -62.7827 -62.7797 -56.7772 -56.7771 -56.7519
   -45.2866 -45.2865 -45.2819 -45.2818 -45.2779 -45.2779 -45.2613 -45.2612
   -45.2601 -45.2601 -45.2550 -45.2550 -45.2540 -45.2540 -45.2404 -45.2404
   -45.2372 -45.2372 -45.2341 -45.2340 -45.2142 -45.2142 -45.2121 -45.2121
   -45.2093 -45.2092 -45.2082 -45.2081 -45.1089 -45.1065 -45.1045 -45.0851
   -45.0828 -45.0749 -45.0746 -31.0577 -31.0492 -30.9989 -30.9936 -30.9870
   -30.9826 -30.9704 -30.9686 -30.9575 -30.9466 -30.9123 -30.9104 -30.8211
   -30.8034 -30.7948 -28.6382 -28.6341 -28.6330 -28.6131 -28.6032 -28.6018
   -28.5986 -28.5830 -28.5742 -28.5709 -28.5693 -28.5665 -28.5493 -28.5399
   -28.5171 -28.5140 -28.4960 -28.4954 -28.4763 -28.4749 -28.4486 -28.4332
   -28.4222 -28.4076 -24.6455 -24.6454 -24.6330 -24.6295 -24.6282 -24.6193
   -24.6175 -24.6059 -24.5814  14.3456  14.7333  15.6704  15.6914  16.1767
    16.2245  16.2891  16.3562  16.4612  16.5373  16.5564  16.5888  16.6367
    16.7433  16.7899  16.8222  16.9085  16.9978  17.0114  17.0569  17.1112
    17.1275  17.1955  17.1983  17.2893  17.4572  17.4640  17.4877  17.6101
    17.7702  17.9126  17.9519  17.9827  18.2101  18.2290  18.7451  18.7764
    18.8478  18.8898  18.9349  18.9575  18.9723  19.0134  19.0267  19.2678
    19.3043  19.3658  19.4130  19.4614  19.6148  19.6813  19.6980  19.7230
    19.9203  19.9977  20.0271  20.0913  20.1203  20.1391  20.2230  20.2631
    20.3610  20.4331  20.4653  20.5332  20.5575  20.6009  20.6596  20.6704
    20.7144  20.8260  20.9279  21.0721  21.0907  21.1175  21.1925  21.2105
    21.2878  21.4306  21.4364  21.5610  21.6049  21.7050  21.7884  22.1850
    22.2232  22.2617  22.3190  25.6273  26.0914  27.6239  27.7400  27.8665
    28.0270  28.4220  28.4358  29.8664  29.9158  30.2573  30.6091  30.8968
    31.1053  31.5110  31.7059  31.8051  31.9279  32.0161  32.1708  32.2771
    32.6969  32.8043  33.0800  33.2091  33.4599  33.7667

          k = 0.0000 0.2778-0.1158 ( 32160 PWs)   bands (ev):

   -76.8772 -76.8771 -76.8350 -76.8345 -76.7107 -62.8876 -62.8553 -62.8547
   -62.8300 -62.8279 -62.8258 -62.7827 -62.7797 -56.7772 -56.7771 -56.7519
   -45.2866 -45.2865 -45.2819 -45.2818 -45.2779 -45.2779 -45.2613 -45.2612
   -45.2601 -45.2601 -45.2550 -45.2550 -45.2540 -45.2540 -45.2404 -45.2404
   -45.2372 -45.2372 -45.2341 -45.2340 -45.2142 -45.2142 -45.2121 -45.2121
   -45.2093 -45.2092 -45.2082 -45.2081 -45.1089 -45.1065 -45.1045 -45.0851
   -45.0828 -45.0749 -45.0746 -31.0577 -31.0492 -30.9993 -30.9928 -30.9875
   -30.9826 -30.9703 -30.9687 -30.9575 -30.9466 -30.9124 -30.9103 -30.8211
   -30.8034 -30.7948 -28.6382 -28.6342 -28.6332 -28.6127 -28.6029 -28.6023
   -28.5976 -28.5834 -28.5748 -28.5709 -28.5692 -28.5666 -28.5489 -28.5402
   -28.5168 -28.5144 -28.4957 -28.4955 -28.4761 -28.4749 -28.4485 -28.4333
   -28.4222 -28.4075 -24.6455 -24.6454 -24.6330 -24.6295 -24.6282 -24.6192
   -24.6176 -24.6059 -24.5814  14.3078  14.8660  15.3574  15.8971  16.1498
    16.2176  16.3094  16.3761  16.4625  16.5307  16.6162  16.6710  16.6777
    16.7123  16.7452  16.7905  16.8661  17.0066  17.0289  17.0680  17.0879
    17.1216  17.1560  17.1669  17.2076  17.4349  17.5331  17.6111  17.6407
    17.7273  17.8212  17.9876  18.0441  18.2203  18.2218  18.7094  18.7305
    18.8374  18.9238  18.9291  18.9339  18.9463  19.0284  19.0501  19.2844
    19.3083  19.3607  19.4074  19.4795  19.6541  19.6676  19.6764  19.7258
    19.9324  19.9632  20.0489  20.0992  20.1297  20.1525  20.2293  20.2542
    20.3531  20.4575  20.4587  20.4931  20.5408  20.5749  20.6250  20.7220
    20.7479  20.8274  20.9399  21.0231  21.0786  21.0976  21.2040  21.2546
    21.3215  21.3836  21.4637  21.5178  21.6058  21.6949  21.8670  22.1223
    22.2201  22.2863  22.3178  25.6946  26.0657  27.3745  27.7106  28.0322
    28.1378  28.3728  28.4948  29.8233  29.9824  30.2602  30.5417  30.7891
    31.0673  31.4489  31.7357  31.9024  31.9306  32.1702  32.2205  32.3721
    32.5790  32.7294  33.1020  33.1732  33.4501  33.7090

          k = 0.1429 0.0001 0.0000 ( 32228 PWs)   bands (ev):

   -76.8772 -76.8771 -76.8349 -76.8345 -76.7108 -62.8871 -62.8545 -62.8541
   -62.8306 -62.8289 -62.8253 -62.7828 -62.7804 -56.7772 -56.7770 -56.7518
   -45.2866 -45.2865 -45.2819 -45.2818 -45.2779 -45.2779 -45.2613 -45.2612
   -45.2601 -45.2601 -45.2550 -45.2550 -45.2540 -45.2540 -45.2404 -45.2404
   -45.2372 -45.2372 -45.2341 -45.2340 -45.2142 -45.2142 -45.2121 -45.2121
   -45.2093 -45.2092 -45.2082 -45.2081 -45.1089 -45.1065 -45.1045 -45.0851
   -45.0828 -45.0749 -45.0746 -31.0569 -31.0525 -30.9992 -30.9950 -30.9895
   -30.9884 -30.9739 -30.9723 -30.9544 -30.9508 -30.9136 -30.9116 -30.8208
   -30.8011 -30.7951 -28.6417 -28.6394 -28.6320 -28.6094 -28.6061 -28.6016
   -28.5990 -28.5790 -28.5770 -28.5731 -28.5727 -28.5681 -28.5469 -28.5388
   -28.5206 -28.5107 -28.4914 -28.4861 -28.4756 -28.4732 -28.4410 -28.4406
   -28.4158 -28.4068 -24.6462 -24.6460 -24.6305 -24.6261 -24.6259 -24.6202
   -24.6165 -24.6063 -24.5792  13.6447  14.8453  15.0136  15.8531  15.8979
    16.0498  16.1650  16.1996  16.2489  16.3322  16.4383  16.5001  16.5101
    16.5193  16.5510  16.6362  16.7179  16.7328  16.8484  17.0302  17.0519
    17.1256  17.1597  17.2011  17.2104  18.0586  18.1138  18.1213  18.1483
    18.2461  18.2760  18.4836  18.5560  18.5910  18.7270  18.7399  18.7575
    18.7700  18.8591  18.8676  18.9131  18.9256  18.9472  18.9515  18.9967
    19.0741  19.0998  19.1942  19.2207  19.3087  19.3534  19.4116  19.8846
    19.9397  20.0706  20.0979  20.1549  20.1866  20.2043  20.2487  20.4127
    20.4868  20.4971  20.6391  20.6785  20.6969  20.7540  20.7825  20.9966
    21.0139  21.2052  21.3608  21.4069  21.4826  21.5690  21.5775  21.6493
    21.7009  21.7769  21.7873  21.7977  21.9117  21.9337  23.2116  23.3316
    23.4027  23.4874  23.6987  24.3155  24.3556  24.3596  24.4100  25.3385
    25.3701  26.8145  26.9536  28.9338  29.1369  30.7941  30.8165  31.1265
    31.3109  31.3852  31.7291  31.8716  32.0304  32.0570  32.0932  33.3770
    33.6094  33.6869  33.7189  33.9061  34.0741  34.0907

          k = 0.1428 0.0003 0.1158 ( 32188 PWs)   bands (ev):

   -76.8772 -76.8771 -76.8349 -76.8345 -76.7108 -62.8871 -62.8545 -62.8540
   -62.8306 -62.8289 -62.8253 -62.7828 -62.7804 -56.7772 -56.7770 -56.7518
   -45.2866 -45.2865 -45.2819 -45.2818 -45.2779 -45.2779 -45.2613 -45.2612
   -45.2601 -45.2601 -45.2550 -45.2550 -45.2540 -45.2540 -45.2404 -45.2404
   -45.2372 -45.2372 -45.2341 -45.2340 -45.2142 -45.2142 -45.2121 -45.2121
   -45.2093 -45.2092 -45.2082 -45.2081 -45.1089 -45.1065 -45.1045 -45.0851
   -45.0828 -45.0749 -45.0746 -31.0574 -31.0519 -30.9990 -30.9963 -30.9890
   -30.9881 -30.9734 -30.9726 -30.9546 -30.9508 -30.9137 -30.9115 -30.8208
   -30.8011 -30.7951 -28.6411 -28.6390 -28.6317 -28.6135 -28.6100 -28.5985
   -28.5948 -28.5794 -28.5776 -28.5756 -28.5694 -28.5681 -28.5449 -28.5401
   -28.5177 -28.5116 -28.4995 -28.4919 -28.4684 -28.4636 -28.4461 -28.4429
   -28.4148 -28.4067 -24.6462 -24.6460 -24.6305 -24.6261 -24.6259 -24.6193
   -24.6174 -24.6063 -24.5792  13.7774  14.3222  15.5652  15.9306  15.9613
    16.0808  16.1180  16.2110  16.2416  16.2777  16.3296  16.3383  16.4568
    16.5444  16.6084  16.6290  16.7185  16.7416  16.7894  16.8266  16.8605
    16.9609  17.5648  17.5920  17.6562  17.9009  18.0136  18.1209  18.1312
    18.2256  18.2481  18.3533  18.4009  18.4649  18.4886  18.5605  18.6411
    18.6591  18.6851  18.7596  18.8298  18.8419  18.8649  18.9378  18.9646
    19.0038  19.2664  19.3904  19.4596  19.6371  19.7689  19.8247  19.8782
    19.9862  20.0081  20.1283  20.1654  20.1887  20.2138  20.2635  20.3425
    20.5659  20.6988  20.7168  20.7659  20.8738  20.8992  20.9429  21.0386
    21.0759  21.1255  21.1293  21.2113  21.3417  21.3622  21.4063  21.4919
    21.5445  21.6177  21.7846  21.8368  21.9238  21.9699  22.1636  23.4908
    23.6077  23.7846  23.9427  24.1705  24.6629  24.8152  25.0936  25.2067
    25.2956  25.5978  26.8918  28.4721  29.7668  30.7121  31.1700  31.2778
    31.3387  31.5562  31.7062  31.9208  32.1425  32.3222  32.9075  33.0163
    33.2220  33.3179  33.6303  33.8726  34.0145  34.1215

          k = 0.1429-0.0001-0.1158 ( 32187 PWs)   bands (ev):

   -76.8772 -76.8771 -76.8349 -76.8345 -76.7108 -62.8871 -62.8545 -62.8540
   -62.8306 -62.8289 -62.8253 -62.7828 -62.7804 -56.7772 -56.7770 -56.7518
   -45.2866 -45.2865 -45.2819 -45.2818 -45.2779 -45.2779 -45.2613 -45.2612
   -45.2601 -45.2601 -45.2550 -45.2550 -45.2540 -45.2540 -45.2404 -45.2404
   -45.2372 -45.2372 -45.2341 -45.2340 -45.2142 -45.2142 -45.2121 -45.2121
   -45.2093 -45.2092 -45.2082 -45.2081 -45.1089 -45.1065 -45.1045 -45.0851
   -45.0828 -45.0749 -45.0746 -31.0574 -31.0519 -30.9991 -30.9961 -30.9891
   -30.9880 -30.9735 -30.9726 -30.9546 -30.9508 -30.9137 -30.9115 -30.8208
   -30.8011 -30.7951 -28.6412 -28.6389 -28.6317 -28.6130 -28.6105 -28.5984
   -28.5949 -28.5794 -28.5774 -28.5757 -28.5695 -28.5678 -28.5454 -28.5397
   -28.5177 -28.5117 -28.4992 -28.4921 -28.4685 -28.4634 -28.4462 -28.4429
   -28.4148 -28.4067 -24.6462 -24.6460 -24.6305 -24.6261 -24.6259 -24.6193
   -24.6174 -24.6063 -24.5792  13.7775  14.3221  15.5651  15.9307  15.9618
    16.0814  16.1176  16.2098  16.2416  16.2780  16.3293  16.3387  16.4566
    16.5445  16.6082  16.6292  16.7183  16.7419  16.7895  16.8267  16.8606
    16.9608  17.5647  17.5919  17.6565  17.9006  18.0134  18.1204  18.1315
    18.2255  18.2480  18.3533  18.4012  18.4642  18.4901  18.5601  18.6403
    18.6585  18.6876  18.7579  18.8300  18.8402  18.8654  18.9378  18.9657
    19.0037  19.2667  19.3908  19.4596  19.6369  19.7686  19.8243  19.8783
    19.9864  20.0085  20.1280  20.1652  20.1888  20.2139  20.2635  20.3426
    20.5659  20.6994  20.7160  20.7663  20.8730  20.8990  20.9433  21.0389
    21.0761  21.1252  21.1294  21.2112  21.3418  21.3626  21.4056  21.4918
    21.5448  21.6174  21.7846  21.8368  21.9239  21.9699  22.1638  23.4908
    23.6075  23.7848  23.9428  24.1701  24.6627  24.8160  25.0944  25.2064
    25.2947  25.5983  26.8919  28.4709  29.7676  30.7110  31.1720  31.2809
    31.3392  31.5544  31.7053  31.9197  32.1398  32.3246  32.9065  33.0194
    33.2205  33.3173  33.6298  33.8721  34.0141  34.1218

          k = 0.1429 0.1391 0.0000 ( 32189 PWs)   bands (ev):

   -76.8772 -76.8771 -76.8349 -76.8345 -76.7108 -62.8871 -62.8545 -62.8541
   -62.8306 -62.8289 -62.8253 -62.7828 -62.7804 -56.7772 -56.7770 -56.7519
   -45.2866 -45.2865 -45.2819 -45.2818 -45.2779 -45.2779 -45.2613 -45.2612
   -45.2601 -45.2601 -45.2550 -45.2550 -45.2540 -45.2540 -45.2404 -45.2404
   -45.2372 -45.2372 -45.2341 -45.2340 -45.2142 -45.2142 -45.2121 -45.2121
   -45.2093 -45.2092 -45.2082 -45.2081 -45.1089 -45.1065 -45.1045 -45.0851
   -45.0828 -45.0749 -45.0746 -31.0568 -31.0523 -30.9989 -30.9953 -30.9890
   -30.9882 -30.9726 -30.9713 -30.9542 -30.9499 -30.9130 -30.9111 -30.8200
   -30.8013 -30.7951 -28.6415 -28.6386 -28.6330 -28.6092 -28.6058 -28.6025
   -28.5998 -28.5801 -28.5777 -28.5742 -28.5716 -28.5682 -28.5473 -28.5394
   -28.5212 -28.5114 -28.4921 -28.4859 -28.4757 -28.4732 -28.4410 -28.4403
   -28.4161 -28.4070 -24.6462 -24.6460 -24.6311 -24.6274 -24.6269 -24.6201
   -24.6165 -24.6064 -24.5800  13.8619  15.0270  15.1634  15.9777  16.0271
    16.1425  16.2383  16.2949  16.3420  16.3697  16.4033  16.5091  16.6278
    16.6883  16.7243  16.7852  16.7977  16.8388  16.8790  17.0033  17.0527
    17.2142  17.2372  17.2776  17.3263  17.8113  17.8798  17.9089  17.9368
    18.0608  18.3242  18.3767  18.3943  18.4494  18.6015  18.6359  18.6965
    18.7240  18.7812  18.7975  18.8201  18.8451  18.8958  18.9457  18.9997
    19.1037  19.1247  19.1525  19.2282  19.3421  19.4874  19.5319  19.9808
    19.9897  20.0548  20.0762  20.1026  20.1319  20.1518  20.1973  20.2736
    20.4964  20.5273  20.5893  20.6013  20.6973  20.7761  20.8527  20.9040
    20.9590  21.0255  21.1493  21.2467  21.3159  21.3780  21.4034  21.5470
    21.5729  21.6004  21.7563  21.7906  21.8414  21.9654  21.9794  22.2236
    22.3087  23.5568  23.6947  24.4349  25.0855  25.1360  25.4392  26.7269
    26.7882  27.0687  27.2136  29.1903  29.3444  29.7196  29.9288  30.0145
    31.2760  31.4089  31.6597  32.2104  32.5760  32.9907  33.2319  33.4790
    33.5709  33.5927  33.8699  33.9788  34.0364  34.1005

          k = 0.1428 0.1393 0.1158 ( 32166 PWs)   bands (ev):

   -76.8772 -76.8771 -76.8349 -76.8345 -76.7108 -62.8871 -62.8545 -62.8540
   -62.8306 -62.8289 -62.8253 -62.7828 -62.7804 -56.7772 -56.7770 -56.7519
   -45.2866 -45.2865 -45.2819 -45.2818 -45.2779 -45.2779 -45.2613 -45.2612
   -45.2601 -45.2601 -45.2550 -45.2550 -45.2540 -45.2540 -45.2404 -45.2404
   -45.2372 -45.2372 -45.2341 -45.2340 -45.2142 -45.2142 -45.2121 -45.2121
   -45.2093 -45.2092 -45.2082 -45.2081 -45.1089 -45.1065 -45.1045 -45.0851
   -45.0828 -45.0749 -45.0746 -31.0572 -31.0517 -30.9988 -30.9963 -30.9888
   -30.9877 -30.9721 -30.9717 -30.9544 -30.9498 -30.9131 -30.9110 -30.8200
   -30.8013 -30.7951 -28.6407 -28.6384 -28.6327 -28.6135 -28.6095 -28.5997
   -28.5950 -28.5813 -28.5780 -28.5750 -28.5695 -28.5686 -28.5451 -28.5405
   -28.5183 -28.5121 -28.4999 -28.4926 -28.4683 -28.4634 -28.4460 -28.4426
   -28.4151 -28.4069 -24.6462 -24.6460 -24.6311 -24.6274 -24.6269 -24.6193
   -24.6173 -24.6063 -24.5800  13.9968  14.5083  15.7303  15.9856  16.0593
    16.1612  16.2240  16.3435  16.3588  16.4000  16.4078  16.4364  16.5035
    16.5592  16.5989  16.6837  16.7069  16.8221  16.9716  17.0585  17.0913
    17.1218  17.4299  17.4681  17.5777  17.6908  17.7185  17.9109  17.9507
    18.0992  18.2088  18.2420  18.3052  18.3629  18.4805  18.5230  18.5277
    18.6081  18.6469  18.7355  18.7989  18.8280  18.8801  19.0012  19.1875
    19.2126  19.3180  19.4610  19.5143  19.5557  19.6170  19.7022  19.7515
    19.7768  19.9498  19.9626  20.0483  20.2256  20.2567  20.2740  20.3943
    20.4257  20.5635  20.6127  20.6506  20.7351  20.8562  20.9434  20.9789
    21.0499  21.0948  21.2131  21.2527  21.2991  21.3408  21.3823  21.4359
    21.4805  21.5461  21.5755  21.6131  21.8725  21.9111  21.9758  22.0203
    22.2615  22.8992  23.7735  24.8849  25.2396  25.6232  25.9498  26.1910
    26.4804  27.0958  27.2512  28.5569  29.3187  29.6897  29.9703  30.4838
    30.6418  31.5457  32.0361  32.1962  32.8239  33.0908  33.3731  33.6003
    33.6671  33.7276  33.9027  34.1967  34.2869  34.3317

          k = 0.1429 0.1389-0.1158 ( 32161 PWs)   bands (ev):

   -76.8772 -76.8771 -76.8349 -76.8345 -76.7108 -62.8871 -62.8545 -62.8540
   -62.8306 -62.8289 -62.8253 -62.7828 -62.7804 -56.7772 -56.7770 -56.7519
   -45.2866 -45.2865 -45.2819 -45.2818 -45.2779 -45.2779 -45.2613 -45.2612
   -45.2601 -45.2601 -45.2550 -45.2550 -45.2540 -45.2540 -45.2404 -45.2404
   -45.2372 -45.2372 -45.2341 -45.2340 -45.2142 -45.2142 -45.2121 -45.2121
   -45.2093 -45.2092 -45.2082 -45.2081 -45.1089 -45.1065 -45.1045 -45.0851
   -45.0828 -45.0749 -45.0746 -31.0571 -31.0518 -30.9990 -30.9956 -30.9889
   -30.9879 -30.9724 -30.9715 -30.9543 -30.9498 -30.9131 -30.9110 -30.8200
   -30.8013 -30.7951 -28.6408 -28.6383 -28.6327 -28.6132 -28.6102 -28.5981
   -28.5965 -28.5796 -28.5789 -28.5759 -28.5699 -28.5678 -28.5454 -28.5401
   -28.5184 -28.5124 -28.4995 -28.4925 -28.4690 -28.4633 -28.4459 -28.4425
   -28.4151 -28.4069 -24.6462 -24.6460 -24.6311 -24.6274 -24.6269 -24.6192
   -24.6175 -24.6063 -24.5800  13.9850  14.5425  15.6111  16.0548  16.1005
    16.1933  16.2232  16.2808  16.3671  16.3907  16.4317  16.4396  16.4826
    16.5700  16.6121  16.6583  16.7601  16.8288  16.9818  17.0185  17.0554
    17.1351  17.4408  17.4638  17.5510  17.6955  17.7355  17.8766  18.0420
    18.0983  18.1440  18.2503  18.3054  18.3953  18.4835  18.5030  18.5322
    18.6100  18.6367  18.7253  18.7804  18.8382  18.8857  19.0012  19.1898
    19.2123  19.3077  19.4633  19.5261  19.5593  19.6064  19.7029  19.7455
    19.8165  19.9349  19.9618  20.0307  20.2193  20.2677  20.2806  20.3933
    20.4705  20.5566  20.6077  20.6144  20.7144  20.8472  20.9353  20.9944
    21.0589  21.0887  21.2226  21.2692  21.3086  21.3243  21.3889  21.4490
    21.4747  21.5561  21.5721  21.6017  21.8898  21.9244  21.9705  22.0141
    22.2260  22.8842  23.7795  24.8773  25.3391  25.6058  25.9232  26.1888
    26.4748  27.0627  27.2606  28.4353  29.5693  29.7832  29.8736  30.2722
    30.6537  31.5913  32.1271  32.2441  32.6625  33.2856  33.3142  33.5624
    33.6761  33.7253  33.8470  34.1416  34.2909  34.3884

          k = 0.1429 0.2781 0.0000 ( 32142 PWs)   bands (ev):

   -76.8772 -76.8771 -76.8349 -76.8345 -76.7108 -62.8871 -62.8545 -62.8541
   -62.8306 -62.8289 -62.8253 -62.7828 -62.7803 -56.7772 -56.7771 -56.7519
   -45.2866 -45.2865 -45.2819 -45.2818 -45.2779 -45.2779 -45.2613 -45.2612
   -45.2601 -45.2601 -45.2550 -45.2550 -45.2540 -45.2540 -45.2404 -45.2404
   -45.2372 -45.2372 -45.2341 -45.2340 -45.2142 -45.2142 -45.2121 -45.2121
   -45.2093 -45.2092 -45.2082 -45.2081 -45.1089 -45.1065 -45.1045 -45.0851
   -45.0828 -45.0749 -45.0746 -31.0566 -31.0519 -30.9985 -30.9957 -30.9885
   -30.9876 -30.9705 -30.9697 -30.9538 -30.9484 -30.9121 -30.9102 -30.8188
   -30.8015 -30.7950 -28.6404 -28.6382 -28.6345 -28.6090 -28.6054 -28.6041
   -28.6011 -28.5812 -28.5787 -28.5744 -28.5717 -28.5688 -28.5480 -28.5402
   -28.5222 -28.5125 -28.4930 -28.4855 -28.4759 -28.4732 -28.4407 -28.4400
   -28.4165 -28.4073 -24.6462 -24.6460 -24.6323 -24.6294 -24.6284 -24.6200
   -24.6166 -24.6064 -24.5813  14.4213  15.1068  15.5471  16.0745  16.1818
    16.2821  16.3139  16.3895  16.4617  16.6244  16.6472  16.7153  16.7376
    16.8170  16.8416  17.0009  17.0180  17.0644  17.0792  17.1048  17.1170
    17.4027  17.4262  17.4465  17.4985  17.5247  17.5599  17.5651  17.6170
    17.6553  18.0745  18.1376  18.1853  18.2145  18.2364  18.2809  18.4466
    18.7126  18.7608  18.8024  18.8357  18.8836  18.9014  18.9324  18.9643
    18.9858  19.0657  19.4757  19.5474  19.5931  19.6686  19.7941  19.8110
    19.8501  19.9487  19.9658  19.9744  19.9909  20.0436  20.0681  20.0979
    20.1006  20.2280  20.2630  20.3735  20.4001  20.4325  20.5619  20.6628
    20.7222  20.8025  20.9667  21.0021  21.0645  21.2509  21.3509  21.3942
    21.4346  21.4566  21.5117  21.5423  21.6049  21.7523  21.8267  21.9130
    22.0315  23.9469  24.0817  24.5392  24.6509  26.0341  27.3417  27.5597
    27.7521  28.4380  28.6647  28.7653  29.3199  29.3704  30.2086  30.3513
    30.4746  31.2909  31.5025  31.6156  31.9991  32.0402  32.1493  32.3980
    32.4786  33.9030  34.0721  34.2111  34.5107  34.6768

          k = 0.1428 0.2783 0.1158 ( 32138 PWs)   bands (ev):

   -76.8772 -76.8771 -76.8349 -76.8345 -76.7108 -62.8871 -62.8545 -62.8540
   -62.8306 -62.8289 -62.8253 -62.7828 -62.7803 -56.7772 -56.7771 -56.7519
   -45.2866 -45.2865 -45.2819 -45.2818 -45.2779 -45.2779 -45.2613 -45.2612
   -45.2601 -45.2601 -45.2550 -45.2550 -45.2540 -45.2540 -45.2404 -45.2404
   -45.2372 -45.2372 -45.2341 -45.2340 -45.2142 -45.2142 -45.2121 -45.2121
   -45.2093 -45.2092 -45.2082 -45.2081 -45.1089 -45.1065 -45.1045 -45.0851
   -45.0828 -45.0749 -45.0746 -31.0569 -31.0515 -30.9986 -30.9958 -30.9885
   -30.9873 -30.9703 -30.9699 -30.9538 -30.9484 -30.9121 -30.9101 -30.8188
   -30.8015 -30.7950 -28.6401 -28.6376 -28.6344 -28.6137 -28.6086 -28.6000
   -28.5967 -28.5833 -28.5792 -28.5754 -28.5696 -28.5690 -28.5453 -28.5408
   -28.5194 -28.5132 -28.5005 -28.4934 -28.4686 -28.4633 -28.4455 -28.4422
   -28.4156 -28.4072 -24.6462 -24.6460 -24.6323 -24.6294 -24.6284 -24.6192
   -24.6174 -24.6064 -24.5813  14.5416  14.9060  15.7517  15.7877  16.2913
    16.3415  16.3583  16.4332  16.5174  16.5659  16.6517  16.6800  16.7631
    16.8654  16.8913  16.9171  16.9357  16.9882  17.1418  17.1702  17.1855
    17.2970  17.3175  17.3640  17.4246  17.4403  17.4977  17.5640  17.5834
    17.7025  17.9738  18.0323  18.1926  18.2766  18.4105  18.6434  18.6932
    18.7105  18.7327  18.7922  18.8215  18.8539  18.9101  18.9598  19.0252
    19.1080  19.2397  19.3190  19.3626  19.3723  19.4594  19.6094  19.7423
    19.7817  19.7924  19.8847  19.9000  19.9379  20.0629  20.1592  20.2406
    20.2971  20.3280  20.4161  20.4534  20.5452  20.6121  20.7262  20.7423
    20.8086  20.9521  20.9747  21.0336  21.0976  21.2537  21.2882  21.3618
    21.4280  21.4656  21.4969  21.6394  21.6630  21.6900  21.8655  21.9286
    22.0098  22.3813  22.8991  25.8985  26.2863  26.5791  26.8327  27.6015
    28.0491  28.1492  28.3658  28.5370  28.7063  28.9258  29.2775  30.2154
    30.3525  30.6848  31.3311  31.7907  32.4536  32.9228  33.2748  33.5000
    33.6360  33.8314  33.8654  34.2452  34.3759  34.8398

          k = 0.1429 0.2779-0.1158 ( 32149 PWs)   bands (ev):

   -76.8772 -76.8771 -76.8349 -76.8345 -76.7108 -62.8871 -62.8545 -62.8540
   -62.8306 -62.8289 -62.8253 -62.7828 -62.7803 -56.7772 -56.7771 -56.7519
   -45.2866 -45.2865 -45.2819 -45.2818 -45.2779 -45.2779 -45.2613 -45.2612
   -45.2601 -45.2601 -45.2550 -45.2550 -45.2540 -45.2540 -45.2404 -45.2404
   -45.2372 -45.2372 -45.2341 -45.2340 -45.2142 -45.2142 -45.2121 -45.2121
   -45.2093 -45.2092 -45.2082 -45.2081 -45.1089 -45.1065 -45.1045 -45.0851
   -45.0828 -45.0749 -45.0746 -31.0568 -31.0516 -30.9987 -30.9955 -30.9885
   -30.9876 -30.9705 -30.9699 -30.9538 -30.9484 -30.9121 -30.9102 -30.8188
   -30.8015 -30.7950 -28.6399 -28.6378 -28.6344 -28.6135 -28.6091 -28.5986
   -28.5981 -28.5822 -28.5795 -28.5760 -28.5701 -28.5684 -28.5458 -28.5404
   -28.5194 -28.5134 -28.5001 -28.4933 -28.4690 -28.4631 -28.4454 -28.4421
   -28.4155 -28.4072 -24.6462 -24.6460 -24.6323 -24.6294 -24.6284 -24.6191
   -24.6175 -24.6064 -24.5813  14.5059  15.0355  15.4599  15.9823  16.2708
    16.3514  16.4030  16.4195  16.4871  16.5513  16.7191  16.7291  16.7751
    16.8132  16.8734  16.8973  16.9415  16.9964  17.1318  17.1739  17.2080
    17.2504  17.3100  17.3510  17.3677  17.4261  17.5295  17.5948  17.6177
    17.7360  17.9221  18.0764  18.2014  18.2838  18.4061  18.6184  18.6538
    18.6741  18.7527  18.7768  18.8074  18.8678  18.9153  18.9916  19.0329
    19.1203  19.2617  19.3021  19.3513  19.3850  19.4626  19.6216  19.7122
    19.7696  19.8308  19.8739  19.9043  19.9284  20.0708  20.1319  20.2519
    20.3150  20.3419  20.4134  20.4432  20.5535  20.6153  20.6737  20.7424
    20.8183  20.9532  20.9819  21.0652  21.0773  21.2425  21.2882  21.3714
    21.4470  21.4809  21.4870  21.6044  21.6574  21.7393  21.8579  21.9380
    21.9817  22.3603  22.9118  25.9546  26.2410  26.5554  26.9157  27.5827
    27.8423  28.1535  28.3635  28.5463  28.8020  29.0496  29.3340  30.0339
    30.3923  30.6579  31.3951  31.7388  32.3327  33.1314  33.3900  33.4458
    33.6408  33.7159  33.8861  34.2917  34.4116  34.7553

          k = 0.1429-0.2779 0.0000 ( 32137 PWs)   bands (ev):

   -76.8772 -76.8771 -76.8349 -76.8345 -76.7108 -62.8871 -62.8545 -62.8541
   -62.8306 -62.8289 -62.8253 -62.7828 -62.7803 -56.7772 -56.7771 -56.7519
   -45.2866 -45.2865 -45.2819 -45.2818 -45.2779 -45.2779 -45.2613 -45.2612
   -45.2601 -45.2601 -45.2550 -45.2550 -45.2540 -45.2540 -45.2404 -45.2404
   -45.2372 -45.2372 -45.2341 -45.2340 -45.2142 -45.2142 -45.2121 -45.2121
   -45.2093 -45.2092 -45.2082 -45.2081 -45.1089 -45.1065 -45.1045 -45.0851
   -45.0828 -45.0749 -45.0746 -31.0565 -31.0519 -30.9986 -30.9956 -30.9886
   -30.9875 -30.9706 -30.9696 -30.9538 -30.9485 -30.9121 -30.9102 -30.8188
   -30.8015 -30.7950 -28.6398 -28.6388 -28.6345 -28.6092 -28.6050 -28.6042
   -28.6010 -28.5813 -28.5788 -28.5743 -28.5717 -28.5688 -28.5481 -28.5401
   -28.5222 -28.5124 -28.4930 -28.4855 -28.4759 -28.4732 -28.4407 -28.4401
   -28.4165 -28.4073 -24.6462 -24.6460 -24.6323 -24.6294 -24.6284 -24.6200
   -24.6166 -24.6064 -24.5813  14.4197  15.1082  15.5464  16.0756  16.1826
    16.2797  16.3126  16.3891  16.4611  16.6272  16.6489  16.7164  16.7382
    16.8168  16.8424  17.0007  17.0175  17.0652  17.0793  17.1052  17.1162
    17.4026  17.4261  17.4463  17.4986  17.5249  17.5592  17.5650  17.6177
    17.6542  18.0751  18.1387  18.1853  18.2136  18.2355  18.2809  18.4461
    18.7110  18.7582  18.8033  18.8355  18.8817  18.9034  18.9349  18.9675
    18.9860  19.0634  19.4766  19.5455  19.5917  19.6693  19.7941  19.8104
    19.8470  19.9516  19.9639  19.9757  19.9918  20.0428  20.0662  20.0978
    20.1000  20.2265  20.2650  20.3736  20.4010  20.4328  20.5626  20.6629
    20.7234  20.8036  20.9649  21.0029  21.0653  21.2483  21.3518  21.3945
    21.4338  21.4562  21.5101  21.5442  21.6028  21.7543  21.8284  21.9125
    22.0323  23.9470  24.0824  24.5403  24.6513  26.0404  27.3401  27.5646
    27.7581  28.4302  28.6534  28.7537  29.3162  29.3657  30.2074  30.3490
    30.4771  31.2962  31.4943  31.6170  32.0014  32.0420  32.1483  32.3995
    32.4819  33.8950  34.0658  34.2238  34.5044  34.6742

          k = 0.1428-0.2777 0.1158 ( 32151 PWs)   bands (ev):

   -76.8772 -76.8771 -76.8349 -76.8345 -76.7108 -62.8871 -62.8545 -62.8540
   -62.8306 -62.8289 -62.8253 -62.7828 -62.7803 -56.7772 -56.7771 -56.7519
   -45.2866 -45.2865 -45.2819 -45.2818 -45.2779 -45.2779 -45.2613 -45.2612
   -45.2601 -45.2601 -45.2550 -45.2550 -45.2540 -45.2540 -45.2404 -45.2404
   -45.2372 -45.2372 -45.2341 -45.2340 -45.2142 -45.2142 -45.2121 -45.2121
   -45.2093 -45.2092 -45.2082 -45.2081 -45.1089 -45.1065 -45.1045 -45.0851
   -45.0828 -45.0749 -45.0746 -31.0568 -31.0516 -30.9987 -30.9954 -30.9886
   -30.9875 -30.9706 -30.9698 -30.9537 -30.9484 -30.9121 -30.9102 -30.8188
   -30.8015 -30.7950 -28.6397 -28.6380 -28.6344 -28.6137 -28.6088 -28.5990
   -28.5978 -28.5822 -28.5797 -28.5758 -28.5701 -28.5685 -28.5451 -28.5409
   -28.5194 -28.5134 -28.5004 -28.4931 -28.4689 -28.4634 -28.4453 -28.4421
   -28.4156 -28.4072 -24.6462 -24.6460 -24.6323 -24.6294 -24.6284 -24.6191
   -24.6175 -24.6064 -24.5813  14.5045  15.0349  15.4610  15.9843  16.2706
    16.3497  16.4033  16.4186  16.4867  16.5518  16.7196  16.7282  16.7749
    16.8142  16.8733  16.8978  16.9436  16.9973  17.1311  17.1742  17.2076
    17.2508  17.3103  17.3506  17.3680  17.4282  17.5305  17.5954  17.6190
    17.7356  17.9224  18.0743  18.1982  18.2809  18.4043  18.6190  18.6552
    18.6731  18.7545  18.7765  18.8082  18.8647  18.9150  18.9882  19.0357
    19.1198  19.2634  19.3037  19.3539  19.3867  19.4608  19.6224  19.7096
    19.7674  19.8292  19.8741  19.9036  19.9301  20.0691  20.1318  20.2531
    20.3170  20.3406  20.4145  20.4445  20.5536  20.6156  20.6743  20.7437
    20.8191  20.9517  20.9809  21.0659  21.0773  21.2414  21.2865  21.3705
    21.4472  21.4815  21.4862  21.6035  21.6576  21.7391  21.8588  21.9397
    21.9819  22.3618  22.9131  25.9542  26.2479  26.5562  26.9228  27.5817
    27.8337  28.1461  28.3650  28.5465  28.7949  29.0481  29.3240  30.0369
    30.3829  30.6622  31.3986  31.7367  32.3285  33.1269  33.3944  33.4490
    33.6411  33.7139  33.8856  34.2993  34.4101  34.7606

          k = 0.1429-0.2781-0.1158 ( 32146 PWs)   bands (ev):

   -76.8772 -76.8771 -76.8349 -76.8345 -76.7108 -62.8871 -62.8545 -62.8540
   -62.8306 -62.8289 -62.8253 -62.7828 -62.7803 -56.7772 -56.7771 -56.7519
   -45.2866 -45.2865 -45.2819 -45.2818 -45.2779 -45.2779 -45.2613 -45.2612
   -45.2601 -45.2601 -45.2550 -45.2550 -45.2540 -45.2540 -45.2404 -45.2404
   -45.2372 -45.2372 -45.2341 -45.2340 -45.2142 -45.2142 -45.2121 -45.2121
   -45.2093 -45.2092 -45.2082 -45.2081 -45.1089 -45.1065 -45.1045 -45.0851
   -45.0828 -45.0749 -45.0746 -31.0568 -31.0515 -30.9985 -30.9959 -30.9882
   -30.9876 -30.9703 -30.9700 -30.9538 -30.9484 -30.9121 -30.9102 -30.8188
   -30.8015 -30.7950 -28.6397 -28.6380 -28.6344 -28.6137 -28.6089 -28.5996
   -28.5970 -28.5833 -28.5789 -28.5757 -28.5696 -28.5687 -28.5460 -28.5402
   -28.5194 -28.5133 -28.5002 -28.4936 -28.4687 -28.4631 -28.4455 -28.4422
   -28.4156 -28.4072 -24.6462 -24.6460 -24.6323 -24.6294 -24.6284 -24.6192
   -24.6174 -24.6064 -24.5813  14.5402  14.9055  15.7527  15.7895  16.2908
    16.3404  16.3595  16.4320  16.5165  16.5652  16.6515  16.6801  16.7632
    16.8658  16.8924  16.9184  16.9359  16.9892  17.1425  17.1701  17.1868
    17.2963  17.3169  17.3639  17.4258  17.4424  17.4985  17.5640  17.5842
    17.7027  17.9737  18.0305  18.1888  18.2738  18.4092  18.6416  18.6950
    18.7113  18.7342  18.7942  18.8210  18.8519  18.9088  18.9557  19.0282
    19.1082  19.2416  19.3206  19.3638  19.3747  19.4573  19.6086  19.7406
    19.7831  19.7887  19.8844  19.8992  19.9394  20.0606  20.1590  20.2424
    20.2987  20.3269  20.4168  20.4545  20.5458  20.6119  20.7272  20.7441
    20.8091  20.9502  20.9750  21.0328  21.0980  21.2525  21.2868  21.3611
    21.4265  21.4663  21.4974  21.6375  21.6642  21.6903  21.8663  21.9292
    22.0112  22.3827  22.8998  25.8982  26.2929  26.5802  26.8401  27.5994
    28.0464  28.1407  28.3606  28.5364  28.7039  28.9227  29.2670  30.2179
    30.3454  30.6887  31.3347  31.7894  32.4503  32.9188  33.2760  33.5012
    33.6406  33.8274  33.8597  34.2565  34.3705  34.8456

          k = 0.1429-0.1389 0.0000 ( 32183 PWs)   bands (ev):

   -76.8772 -76.8771 -76.8349 -76.8345 -76.7108 -62.8871 -62.8545 -62.8541
   -62.8306 -62.8289 -62.8253 -62.7828 -62.7804 -56.7772 -56.7770 -56.7519
   -45.2866 -45.2865 -45.2819 -45.2818 -45.2779 -45.2779 -45.2613 -45.2612
   -45.2601 -45.2601 -45.2550 -45.2550 -45.2540 -45.2540 -45.2404 -45.2404
   -45.2372 -45.2372 -45.2341 -45.2340 -45.2142 -45.2142 -45.2121 -45.2121
   -45.2093 -45.2092 -45.2082 -45.2081 -45.1089 -45.1065 -45.1045 -45.0851
   -45.0828 -45.0749 -45.0746 -31.0568 -31.0523 -30.9990 -30.9952 -30.9892
   -30.9880 -30.9727 -30.9712 -30.9541 -30.9499 -30.9130 -30.9111 -30.8200
   -30.8013 -30.7951 -28.6406 -28.6395 -28.6330 -28.6096 -28.6054 -28.6026
   -28.5997 -28.5801 -28.5778 -28.5740 -28.5716 -28.5683 -28.5474 -28.5392
   -28.5212 -28.5114 -28.4921 -28.4859 -28.4757 -28.4732 -28.4410 -28.4403
   -28.4161 -28.4070 -24.6462 -24.6460 -24.6312 -24.6274 -24.6269 -24.6202
   -24.6165 -24.6064 -24.5800  13.8610  15.0267  15.1636  15.9765  16.0265
    16.1412  16.2397  16.2951  16.3426  16.3700  16.4040  16.5108  16.6281
    16.6886  16.7235  16.7857  16.7993  16.8396  16.8801  17.0025  17.0520
    17.2138  17.2367  17.2778  17.3258  17.8125  17.8802  17.9093  17.9394
    18.0629  18.3224  18.3737  18.3936  18.4479  18.6019  18.6354  18.6963
    18.7241  18.7812  18.7991  18.8207  18.8461  18.8975  18.9461  19.0021
    19.0984  19.1224  19.1522  19.2286  19.3397  19.4831  19.5290  19.9838
    19.9921  20.0533  20.0751  20.1039  20.1329  20.1527  20.1985  20.2729
    20.4971  20.5282  20.5902  20.6021  20.6974  20.7762  20.8512  20.9043
    20.9584  21.0248  21.1474  21.2472  21.3149  21.3770  21.4024  21.5475
    21.5728  21.6021  21.7562  21.7894  21.8422  21.9649  21.9802  22.2260
    22.3109  23.5572  23.6953  24.4384  25.0874  25.1372  25.4391  26.7236
    26.7849  27.0731  27.2179  29.1823  29.3404  29.7079  29.9151  29.9998
    31.2772  31.4037  31.6608  32.2046  32.5797  32.9778  33.2226  33.4849
    33.5823  33.6018  33.8775  33.9933  34.0403  34.1057

          k = 0.1428-0.1387 0.1158 ( 32158 PWs)   bands (ev):

   -76.8772 -76.8771 -76.8349 -76.8345 -76.7108 -62.8871 -62.8545 -62.8540
   -62.8306 -62.8289 -62.8253 -62.7828 -62.7804 -56.7772 -56.7770 -56.7519
   -45.2866 -45.2865 -45.2819 -45.2818 -45.2779 -45.2779 -45.2613 -45.2612
   -45.2601 -45.2601 -45.2550 -45.2550 -45.2540 -45.2540 -45.2404 -45.2404
   -45.2372 -45.2372 -45.2341 -45.2340 -45.2142 -45.2142 -45.2121 -45.2121
   -45.2093 -45.2092 -45.2082 -45.2081 -45.1089 -45.1065 -45.1045 -45.0851
   -45.0828 -45.0749 -45.0746 -31.0571 -31.0518 -30.9990 -30.9957 -30.9888
   -30.9880 -30.9724 -30.9715 -30.9542 -30.9499 -30.9131 -30.9110 -30.8200
   -30.8013 -30.7951 -28.6401 -28.6390 -28.6327 -28.6136 -28.6097 -28.5980
   -28.5966 -28.5795 -28.5792 -28.5758 -28.5699 -28.5679 -28.5449 -28.5406
   -28.5184 -28.5123 -28.4998 -28.4922 -28.4688 -28.4635 -28.4458 -28.4425
   -28.4151 -28.4069 -24.6462 -24.6460 -24.6312 -24.6274 -24.6269 -24.6192
   -24.6175 -24.6063 -24.5800  13.9841  14.5419  15.6120  16.0540  16.1000
    16.1933  16.2237  16.2805  16.3666  16.3908  16.4322  16.4396  16.4828
    16.5711  16.6112  16.6586  16.7601  16.8285  16.9833  17.0193  17.0564
    17.1359  17.4420  17.4646  17.5515  17.6977  17.7374  17.8759  18.0411
    18.0969  18.1446  18.2473  18.3045  18.3967  18.4839  18.5033  18.5297
    18.6103  18.6376  18.7230  18.7787  18.8413  18.8835  19.0033  19.1873
    19.2087  19.3020  19.4619  19.5268  19.5600  19.6062  19.7024  19.7451
    19.8168  19.9363  19.9630  20.0320  20.2195  20.2691  20.2820  20.3940
    20.4722  20.5574  20.6084  20.6152  20.7141  20.8473  20.9357  20.9954
    21.0573  21.0891  21.2223  21.2689  21.3098  21.3229  21.3893  21.4486
    21.4738  21.5557  21.5712  21.6015  21.8891  21.9238  21.9701  22.0132
    22.2267  22.8879  23.7832  24.8817  25.3389  25.6051  25.9268  26.1872
    26.4738  27.0591  27.2608  28.4371  29.5560  29.7676  29.8694  30.2621
    30.6470  31.5846  32.1252  32.2384  32.6647  33.2878  33.3211  33.5675
    33.6833  33.7372  33.8619  34.1499  34.2959  34.3808

          k = 0.1429-0.1391-0.1158 ( 32167 PWs)   bands (ev):

   -76.8772 -76.8771 -76.8349 -76.8345 -76.7108 -62.8871 -62.8545 -62.8540
   -62.8306 -62.8289 -62.8253 -62.7828 -62.7804 -56.7772 -56.7770 -56.7519
   -45.2866 -45.2865 -45.2819 -45.2818 -45.2779 -45.2779 -45.2613 -45.2612
   -45.2601 -45.2601 -45.2550 -45.2550 -45.2540 -45.2540 -45.2404 -45.2404
   -45.2372 -45.2372 -45.2341 -45.2340 -45.2142 -45.2142 -45.2121 -45.2121
   -45.2093 -45.2092 -45.2082 -45.2081 -45.1089 -45.1065 -45.1045 -45.0851
   -45.0828 -45.0749 -45.0746 -31.0572 -31.0517 -30.9988 -30.9963 -30.9886
   -30.9878 -30.9722 -30.9716 -30.9543 -30.9499 -30.9131 -30.9110 -30.8200
   -30.8013 -30.7951 -28.6400 -28.6391 -28.6327 -28.6133 -28.6098 -28.5994
   -28.5952 -28.5814 -28.5778 -28.5753 -28.5696 -28.5683 -28.5457 -28.5399
   -28.5184 -28.5122 -28.4996 -28.4929 -28.4684 -28.4632 -28.4460 -28.4426
   -28.4151 -28.4069 -24.6462 -24.6460 -24.6312 -24.6274 -24.6269 -24.6193
   -24.6173 -24.6063 -24.5800  13.9959  14.5076  15.7308  15.9868  16.0587
    16.1611  16.2232  16.3435  16.3581  16.3998  16.4085  16.4367  16.5036
    16.5591  16.5982  16.6840  16.7077  16.8222  16.9724  17.0596  17.0924
    17.1230  17.4310  17.4696  17.5778  17.6923  17.7205  17.9104  17.9500
    18.0980  18.2088  18.2395  18.3031  18.3659  18.4798  18.5217  18.5271
    18.6080  18.6486  18.7317  18.7981  18.8306  18.8782  19.0035  19.1808
    19.2143  19.3120  19.4602  19.5151  19.5560  19.6168  19.7006  19.7510
    19.7785  19.9513  19.9640  20.0490  20.2259  20.2577  20.2755  20.3956
    20.4266  20.5638  20.6141  20.6517  20.7350  20.8550  20.9445  20.9802
    21.0485  21.0947  21.2130  21.2516  21.2998  21.3399  21.3826  21.4355
    21.4802  21.5455  21.5744  21.6131  21.8717  21.9110  21.9751  22.0197
    22.2624  22.9032  23.7766  24.8886  25.2393  25.6232  25.9542  26.1893
    26.4797  27.0923  27.2514  28.5576  29.3092  29.6747  29.9592  30.4766
    30.6345  31.5427  32.0344  32.1893  32.8271  33.0939  33.3733  33.6115
    33.6725  33.7352  33.9155  34.2043  34.2900  34.3276

          k = 0.2857 0.0002 0.0000 ( 32138 PWs)   bands (ev):

   -76.8772 -76.8771 -76.8347 -76.8345 -76.7109 -62.8859 -62.8525 -62.8524
   -62.8322 -62.8313 -62.8240 -62.7832 -62.7820 -56.7772 -56.7770 -56.7518
   -45.2866 -45.2865 -45.2819 -45.2818 -45.2779 -45.2779 -45.2613 -45.2612
   -45.2601 -45.2601 -45.2550 -45.2550 -45.2540 -45.2540 -45.2404 -45.2404
   -45.2372 -45.2372 -45.2341 -45.2340 -45.2142 -45.2142 -45.2121 -45.2121
   -45.2093 -45.2093 -45.2082 -45.2081 -45.1089 -45.1065 -45.1045 -45.0851
   -45.0828 -45.0749 -45.0746 -31.0583 -31.0537 -31.0068 -30.9968 -30.9943
   -30.9904 -30.9746 -30.9725 -30.9556 -30.9506 -30.9125 -30.9112 -30.8161
   -30.7964 -30.7954 -28.6489 -28.6460 -28.6322 -28.6141 -28.6116 -28.6056
   -28.5974 -28.5861 -28.5796 -28.5756 -28.5725 -28.5689 -28.5476 -28.5367
   -28.5222 -28.5145 -28.4903 -28.4852 -28.4586 -28.4519 -28.4506 -28.4422
   -28.4076 -28.4063 -24.6476 -24.6474 -24.6298 -24.6259 -24.6258 -24.6200
   -24.6163 -24.6076 -24.5790  14.3398  15.2500  15.2705  15.9295  16.0332
    16.1205  16.1761  16.2190  16.3089  16.4615  16.4934  16.5294  16.5374
    16.5567  16.5871  16.6237  16.7090  16.7495  16.7946  17.4306  17.4435
    17.5173  17.5193  17.6141  17.6420  18.0737  18.2602  18.2996  18.3603
    18.3931  18.4513  18.5062  18.5421  18.6123  18.6294  18.6789  18.7314
    18.7434  18.7765  18.7897  18.8296  18.8731  18.8804  18.9234  18.9293
    19.0018  19.1085  19.1264  19.5676  19.5783  19.6737  19.6941  19.7118
    19.7358  19.7927  19.8169  19.8180  19.9174  19.9207  19.9220  19.9554
    20.3416  20.4771  20.5429  20.5782  20.6057  20.7426  20.9085  21.0083
    21.0354  21.0364  21.2498  21.2613  21.2627  21.3938  21.4319  21.4619
    21.4700  21.6917  21.7314  21.7788  21.8307  21.8481  21.9368  23.0735
    23.1177  23.1307  23.2710  24.4253  24.4895  25.0829  25.1460  25.1831
    25.2378  27.1943  27.2277  28.5760  28.9557  29.0479  29.4318  29.8860
    29.9712  30.0828  30.2255  30.2461  30.5561  30.9134  31.5720  32.6184
    32.6483  33.1099  33.4656  35.0936  35.1236  35.4766

          k = 0.2857 0.0004 0.1158 ( 32152 PWs)   bands (ev):

   -76.8772 -76.8771 -76.8347 -76.8345 -76.7109 -62.8859 -62.8525 -62.8524
   -62.8322 -62.8313 -62.8240 -62.7832 -62.7820 -56.7772 -56.7770 -56.7518
   -45.2866 -45.2865 -45.2819 -45.2818 -45.2779 -45.2779 -45.2613 -45.2612
   -45.2601 -45.2601 -45.2550 -45.2550 -45.2540 -45.2540 -45.2404 -45.2404
   -45.2372 -45.2372 -45.2341 -45.2340 -45.2142 -45.2142 -45.2121 -45.2121
   -45.2093 -45.2093 -45.2082 -45.2081 -45.1089 -45.1065 -45.1045 -45.0851
   -45.0828 -45.0749 -45.0746 -31.0575 -31.0546 -31.0072 -30.9979 -30.9932
   -30.9897 -30.9748 -30.9723 -30.9556 -30.9509 -30.9122 -30.9115 -30.8161
   -30.7964 -30.7954 -28.6483 -28.6454 -28.6321 -28.6184 -28.6140 -28.6028
   -28.5967 -28.5818 -28.5790 -28.5757 -28.5722 -28.5699 -28.5478 -28.5421
   -28.5192 -28.5146 -28.4875 -28.4835 -28.4658 -28.4564 -28.4457 -28.4388
   -28.4084 -28.4062 -24.6476 -24.6474 -24.6298 -24.6259 -24.6258 -24.6191
   -24.6172 -24.6075 -24.5790  14.4488  14.8928  15.5701  15.7979  16.1495
    16.1945  16.2556  16.3113  16.3652  16.4352  16.4524  16.4870  16.4986
    16.5279  16.5321  16.6158  16.7019  16.7893  16.8714  16.9915  17.0489
    17.2035  17.8241  17.8538  17.9155  18.0538  18.1204  18.1471  18.2075
    18.2491  18.5784  18.6069  18.6267  18.7502  18.7708  18.7955  18.8670
    18.8810  18.9106  18.9226  18.9584  18.9831  18.9932  19.0141  19.0901
    19.1225  19.1811  19.2738  19.3157  19.3202  19.3940  19.4997  19.5349
    19.5459  19.5741  19.6472  19.7839  19.8536  20.0261  20.1091  20.2257
    20.2527  20.3458  20.5277  20.5531  20.6217  20.7136  20.8168  20.8859
    20.9744  21.0151  21.2484  21.4101  21.4148  21.4498  21.4827  21.5842
    21.6581  21.6714  21.7224  21.7675  21.7822  21.8257  21.8346  22.3449
    23.3875  23.4414  23.4849  24.1618  24.2201  24.6304  25.1802  26.0041
    26.1216  26.7811  26.8753  27.9751  28.2820  29.1711  29.3825  29.5765
    29.9941  30.1221  30.5212  30.6028  31.1848  31.4019  32.2303  32.5865
    32.8171  33.1640  33.6363  34.1258  34.4197  34.5444

          k = 0.2857 0.0000-0.1158 ( 32149 PWs)   bands (ev):

   -76.8772 -76.8771 -76.8347 -76.8345 -76.7109 -62.8859 -62.8525 -62.8524
   -62.8322 -62.8313 -62.8240 -62.7832 -62.7820 -56.7772 -56.7770 -56.7518
   -45.2866 -45.2865 -45.2819 -45.2818 -45.2779 -45.2779 -45.2613 -45.2612
   -45.2601 -45.2601 -45.2550 -45.2550 -45.2540 -45.2540 -45.2404 -45.2404
   -45.2372 -45.2372 -45.2341 -45.2340 -45.2142 -45.2142 -45.2121 -45.2121
   -45.2093 -45.2093 -45.2082 -45.2081 -45.1089 -45.1065 -45.1045 -45.0851
   -45.0828 -45.0749 -45.0746 -31.0574 -31.0546 -31.0072 -30.9980 -30.9931
   -30.9898 -30.9748 -30.9723 -30.9556 -30.9509 -30.9122 -30.9116 -30.8161
   -30.7964 -30.7954 -28.6482 -28.6454 -28.6321 -28.6184 -28.6141 -28.6024
   -28.5968 -28.5820 -28.5790 -28.5756 -28.5723 -28.5701 -28.5469 -28.5429
   -28.5191 -28.5146 -28.4875 -28.4834 -28.4658 -28.4564 -28.4457 -28.4388
   -28.4085 -28.4061 -24.6476 -24.6474 -24.6298 -24.6259 -24.6258 -24.6191
   -24.6172 -24.6075 -24.5790  14.4489  14.8928  15.5700  15.7981  16.1495
    16.1943  16.2557  16.3112  16.3656  16.4355  16.4523  16.4865  16.4984
    16.5282  16.5319  16.6158  16.7021  16.7895  16.8714  16.9915  17.0488
    17.2033  17.8240  17.8542  17.9158  18.0534  18.1205  18.1466  18.2080
    18.2479  18.5849  18.6004  18.6259  18.7509  18.7714  18.7977  18.8624
    18.8824  18.9122  18.9230  18.9595  18.9825  18.9940  19.0125  19.0908
    19.1220  19.1813  19.2740  19.3139  19.3208  19.3941  19.5014  19.5323
    19.5467  19.5738  19.6474  19.7838  19.8533  20.0266  20.1092  20.2257
    20.2528  20.3456  20.5286  20.5521  20.6219  20.7132  20.8175  20.8860
    20.9741  21.0144  21.2487  21.4097  21.4150  21.4494  21.4834  21.5841
    21.6579  21.6715  21.7223  21.7677  21.7820  21.8256  21.8348  22.3447
    23.3871  23.4427  23.4840  24.1598  24.2223  24.6306  25.1798  26.0066
    26.1199  26.7797  26.8760  27.9748  28.2831  29.1698  29.3824  29.5786
    29.9947  30.1209  30.5174  30.6036  31.1874  31.4013  32.2310  32.5875
    32.8170  33.1659  33.6358  34.1253  34.4128  34.5479

          k = 0.2857 0.1392 0.0000 ( 32156 PWs)   bands (ev):

   -76.8772 -76.8771 -76.8347 -76.8345 -76.7109 -62.8859 -62.8525 -62.8524
   -62.8322 -62.8313 -62.8240 -62.7832 -62.7820 -56.7772 -56.7770 -56.7518
   -45.2866 -45.2865 -45.2819 -45.2818 -45.2779 -45.2779 -45.2613 -45.2612
   -45.2601 -45.2601 -45.2550 -45.2550 -45.2540 -45.2540 -45.2404 -45.2404
   -45.2372 -45.2372 -45.2341 -45.2340 -45.2142 -45.2142 -45.2121 -45.2121
   -45.2093 -45.2093 -45.2082 -45.2081 -45.1089 -45.1065 -45.1045 -45.0851
   -45.0828 -45.0749 -45.0746 -31.0579 -31.0537 -31.0064 -30.9970 -30.9940
   -30.9899 -30.9732 -30.9715 -30.9550 -30.9500 -30.9123 -30.9105 -30.8154
   -30.7966 -30.7954 -28.6491 -28.6452 -28.6328 -28.6137 -28.6130 -28.6053
   -28.5978 -28.5870 -28.5800 -28.5769 -28.5720 -28.5692 -28.5480 -28.5372
   -28.5231 -28.5153 -28.4908 -28.4852 -28.4584 -28.4520 -28.4501 -28.4421
   -28.4077 -28.4064 -24.6476 -24.6474 -24.6302 -24.6271 -24.6269 -24.6199
   -24.6163 -24.6076 -24.5798  14.5266  15.3640  15.4732  16.0662  16.0735
    16.2320  16.2989  16.3611  16.4088  16.5411  16.5861  16.6533  16.6748
    16.7141  16.7684  16.7938  16.8493  16.9178  16.9525  17.4659  17.4773
    17.5274  17.5368  17.6400  17.6454  18.0638  18.0908  18.1050  18.1105
    18.1555  18.1865  18.4170  18.4565  18.4718  18.4994  18.6003  18.7003
    18.7107  18.7726  18.7787  18.8032  18.8806  18.9255  18.9482  18.9636
    19.0201  19.0828  19.1139  19.3844  19.3980  19.4431  19.4769  19.5418
    19.6794  19.7069  19.7444  19.7942  19.8195  19.8731  19.9420  19.9810
    20.0680  20.2584  20.3334  20.3695  20.5354  20.7166  20.8328  20.9362
    21.0398  21.0754  21.2158  21.2243  21.2883  21.3946  21.4361  21.4701
    21.4860  21.5579  21.5877  21.6473  21.6729  21.7244  21.7581  22.5470
    23.1631  23.3544  23.5999  23.7075  24.7681  24.8778  24.8883  26.6361
    26.7363  27.1761  27.2211  27.8218  28.2222  28.4125  29.3422  29.8177
    30.1506  30.5539  30.8315  31.0704  31.6752  32.0947  32.1120  32.4889
    32.9965  33.9635  33.9908  34.2935  34.7068  34.8004

          k = 0.2857 0.1394 0.1158 ( 32133 PWs)   bands (ev):

   -76.8772 -76.8771 -76.8347 -76.8345 -76.7109 -62.8859 -62.8525 -62.8523
   -62.8322 -62.8313 -62.8241 -62.7832 -62.7820 -56.7772 -56.7770 -56.7518
   -45.2866 -45.2865 -45.2819 -45.2818 -45.2779 -45.2779 -45.2613 -45.2612
   -45.2601 -45.2601 -45.2550 -45.2550 -45.2540 -45.2540 -45.2404 -45.2404
   -45.2372 -45.2372 -45.2341 -45.2340 -45.2142 -45.2142 -45.2121 -45.2121
   -45.2093 -45.2093 -45.2082 -45.2081 -45.1089 -45.1065 -45.1045 -45.0851
   -45.0828 -45.0749 -45.0746 -31.0570 -31.0546 -31.0068 -30.9980 -30.9929
   -30.9894 -30.9734 -30.9713 -30.9550 -30.9503 -30.9122 -30.9106 -30.8154
   -30.7966 -30.7954 -28.6488 -28.6447 -28.6328 -28.6175 -28.6142 -28.6038
   -28.5959 -28.5828 -28.5797 -28.5765 -28.5724 -28.5713 -28.5479 -28.5423
   -28.5204 -28.5157 -28.4873 -28.4832 -28.4660 -28.4562 -28.4454 -28.4388
   -28.4085 -28.4063 -24.6476 -24.6474 -24.6302 -24.6271 -24.6269 -24.6190
   -24.6171 -24.6076 -24.5798  14.6416  15.0568  15.7525  15.9036  16.1416
    16.3240  16.3770  16.4273  16.4723  16.5215  16.5637  16.6167  16.6541
    16.7129  16.7306  16.7588  16.8320  16.8959  17.0110  17.0493  17.0712
    17.3336  17.6837  17.7206  17.9268  17.9690  17.9935  18.0597  18.1038
    18.3436  18.4171  18.5144  18.5550  18.5777  18.7505  18.7580  18.7975
    18.8145  18.8942  18.9096  18.9225  18.9408  18.9797  19.0125  19.0358
    19.0810  19.0895  19.1052  19.1390  19.2047  19.2291  19.2679  19.3650
    19.3829  19.4158  19.4494  19.5687  19.5969  19.7815  19.8322  20.2544
    20.4737  20.4987  20.5668  20.6093  20.7977  20.8630  20.9144  20.9490
    21.1133  21.1308  21.2304  21.2491  21.2949  21.3416  21.3831  21.4371
    21.4737  21.4937  21.5042  21.5958  21.6312  21.6807  21.7420  22.0386
    22.5180  23.0364  23.8406  24.2964  25.1261  25.2201  25.3409  25.6042
    26.0873  27.4689  28.0203  28.0828  28.3003  28.4831  28.7316  29.0181
    29.4167  31.0334  31.5784  31.6788  31.8823  32.2378  32.4365  32.6543
    32.9505  33.2796  33.4317  34.3151  34.5887  34.9589

          k = 0.2857 0.1390-0.1158 ( 32147 PWs)   bands (ev):

   -76.8772 -76.8771 -76.8347 -76.8345 -76.7109 -62.8859 -62.8525 -62.8523
   -62.8322 -62.8313 -62.8241 -62.7832 -62.7820 -56.7772 -56.7770 -56.7518
   -45.2866 -45.2865 -45.2819 -45.2818 -45.2779 -45.2779 -45.2613 -45.2612
   -45.2601 -45.2601 -45.2550 -45.2550 -45.2540 -45.2540 -45.2404 -45.2404
   -45.2372 -45.2372 -45.2341 -45.2340 -45.2142 -45.2142 -45.2121 -45.2121
   -45.2093 -45.2093 -45.2082 -45.2081 -45.1089 -45.1065 -45.1045 -45.0851
   -45.0828 -45.0749 -45.0746 -31.0574 -31.0543 -31.0066 -30.9975 -30.9935
   -30.9895 -30.9733 -30.9716 -30.9550 -30.9501 -30.9119 -30.9108 -30.8154
   -30.7966 -30.7954 -28.6487 -28.6446 -28.6327 -28.6180 -28.6148 -28.6014
   -28.5985 -28.5824 -28.5795 -28.5771 -28.5722 -28.5699 -28.5479 -28.5428
   -28.5202 -28.5155 -28.4880 -28.4834 -28.4656 -28.4560 -28.4457 -28.4386
   -28.4086 -28.4063 -24.6476 -24.6474 -24.6302 -24.6271 -24.6269 -24.6190
   -24.6172 -24.6076 -24.5798  14.6319  15.0930  15.6541  15.9674  16.1655
    16.3026  16.3748  16.4150  16.5078  16.5280  16.5737  16.6394  16.6608
    16.6729  16.7097  16.7501  16.8197  16.8777  17.0225  17.0768  17.0840
    17.3281  17.6995  17.7420  17.8893  17.9343  18.0169  18.0548  18.1382
    18.3339  18.3906  18.5145  18.5317  18.5871  18.7177  18.7627  18.7855
    18.8315  18.8824  18.9040  18.9399  18.9510  18.9949  19.0210  19.0453
    19.0784  19.0904  19.1099  19.1232  19.2087  19.2265  19.2824  19.3712
    19.3808  19.4319  19.4463  19.5628  19.5921  19.7940  19.8161  20.2587
    20.4867  20.5031  20.5353  20.5979  20.7928  20.8832  20.9093  20.9820
    21.1219  21.1437  21.2135  21.2494  21.2792  21.3365  21.3812  21.4357
    21.4571  21.4902  21.5240  21.6073  21.6230  21.6826  21.7508  22.0423
    22.4858  23.0178  23.8651  24.3073  25.1592  25.2163  25.3211  25.5682
    26.0845  27.7345  27.8728  28.0783  28.2550  28.4514  28.6551  28.8824
    29.6027  31.2702  31.4343  31.6577  31.8170  32.1905  32.4421  32.6934
    32.9034  33.3014  33.5041  34.2765  34.5718  34.9425

          k = 0.2857 0.2782 0.0000 ( 32150 PWs)   bands (ev):

   -76.8771 -76.8771 -76.8347 -76.8345 -76.7109 -62.8859 -62.8525 -62.8524
   -62.8322 -62.8313 -62.8241 -62.7832 -62.7820 -56.7772 -56.7770 -56.7518
   -45.2866 -45.2865 -45.2819 -45.2818 -45.2779 -45.2779 -45.2613 -45.2612
   -45.2601 -45.2601 -45.2550 -45.2550 -45.2540 -45.2540 -45.2404 -45.2404
   -45.2372 -45.2372 -45.2341 -45.2340 -45.2142 -45.2142 -45.2121 -45.2121
   -45.2093 -45.2093 -45.2082 -45.2081 -45.1089 -45.1065 -45.1045 -45.0851
   -45.0828 -45.0749 -45.0746 -31.0572 -31.0538 -31.0058 -30.9974 -30.9934
   -30.9894 -30.9709 -30.9700 -30.9541 -30.9490 -30.9118 -30.9093 -30.8143
   -30.7970 -30.7953 -28.6502 -28.6438 -28.6334 -28.6153 -28.6129 -28.6048
   -28.5984 -28.5883 -28.5805 -28.5793 -28.5712 -28.5697 -28.5485 -28.5380
   -28.5246 -28.5165 -28.4915 -28.4853 -28.4580 -28.4521 -28.4494 -28.4420
   -28.4078 -28.4066 -24.6475 -24.6474 -24.6311 -24.6291 -24.6287 -24.6197
   -24.6163 -24.6077 -24.5810  14.9528  15.3720  15.9372  16.2823  16.3528
    16.4760  16.4936  16.5194  16.6124  16.6993  16.8437  16.8765  17.0894
    17.1209  17.1540  17.1907  17.2891  17.4013  17.4081  17.4253  17.4341
    17.5061  17.5601  17.6130  17.6385  17.6656  17.7267  17.7697  17.8484
    17.8835  17.9209  18.0069  18.1711  18.2291  18.2625  18.3142  18.3725
    18.4947  18.5663  18.7043  18.7236  18.7434  18.8231  18.8686  18.8729
    18.9159  18.9415  19.0280  19.1584  19.2450  19.2920  19.4455  19.4823
    19.5633  19.5784  19.8209  19.8343  19.8383  19.8644  19.9073  20.0016
    20.0230  20.0334  20.0712  20.2439  20.2774  20.3500  20.4996  20.5443
    20.6004  20.6902  20.7812  20.9884  21.0250  21.2423  21.2732  21.4413
    21.4689  21.6468  21.6788  21.6999  21.7164  21.7842  21.8661  22.3672
    22.3832  23.8293  24.5595  24.5771  24.9160  25.4392  25.6228  25.7056
    25.8988  26.4519  26.6457  29.1017  29.1632  29.6679  29.7782  30.3043
    30.4672  30.5697  31.2674  31.3907  31.6187  32.4920  32.5925  33.2051
    33.2604  33.8575  34.3875  34.5050  34.6098  34.8572

          k = 0.2857 0.2784 0.1158 ( 32134 PWs)   bands (ev):

   -76.8771 -76.8771 -76.8347 -76.8345 -76.7109 -62.8859 -62.8525 -62.8523
   -62.8322 -62.8313 -62.8241 -62.7832 -62.7820 -56.7772 -56.7770 -56.7518
   -45.2866 -45.2865 -45.2819 -45.2818 -45.2779 -45.2779 -45.2613 -45.2612
   -45.2601 -45.2601 -45.2550 -45.2550 -45.2540 -45.2540 -45.2404 -45.2404
   -45.2372 -45.2372 -45.2341 -45.2340 -45.2142 -45.2142 -45.2121 -45.2121
   -45.2093 -45.2093 -45.2082 -45.2081 -45.1089 -45.1065 -45.1045 -45.0851
   -45.0828 -45.0749 -45.0746 -31.0567 -31.0542 -31.0059 -30.9976 -30.9931
   -30.9890 -30.9710 -30.9701 -30.9542 -30.9490 -30.9116 -30.9095 -30.8143
   -30.7970 -30.7953 -28.6502 -28.6435 -28.6334 -28.6172 -28.6145 -28.6034
   -28.5972 -28.5839 -28.5806 -28.5785 -28.5724 -28.5719 -28.5491 -28.5421
   -28.5223 -28.5171 -28.4876 -28.4829 -28.4658 -28.4558 -28.4452 -28.4386
   -28.4086 -28.4066 -24.6475 -24.6474 -24.6311 -24.6291 -24.6287 -24.6189
   -24.6171 -24.6077 -24.5810  15.0657  15.3323  15.9601  16.0222  16.4065
    16.4982  16.5957  16.6275  16.6831  16.7168  16.7592  16.8543  16.9668
    17.0182  17.1220  17.1608  17.1989  17.2111  17.2418  17.3364  17.4118
    17.5372  17.5612  17.5777  17.7012  17.7590  17.8103  17.9009  17.9154
    17.9729  18.0593  18.1844  18.2889  18.3319  18.3768  18.4169  18.4892
    18.5300  18.6057  18.6152  18.6440  18.6855  18.7197  18.7713  18.7944
    18.8965  18.9499  18.9730  19.0424  19.0806  19.3241  19.3684  19.4053
    19.4555  19.5484  19.6379  19.6623  19.7015  19.8596  19.9081  20.0304
    20.0527  20.2216  20.3001  20.3986  20.4564  20.5791  20.6103  20.7112
    20.8229  20.8386  21.0343  21.0927  21.1539  21.2270  21.2485  21.2836
    21.3444  21.4078  21.4825  21.5659  21.5758  21.6669  21.7262  22.1947
    22.9823  23.1867  24.0344  24.2302  24.7711  25.3340  25.8389  26.2687
    26.4249  27.1463  27.6095  28.2856  28.5015  29.0744  29.4122  29.8131
    29.8773  31.3634  31.7081  31.8129  32.0800  32.4738  33.0595  33.5228
    33.6878  33.9637  34.0479  34.1695  34.3192  34.6957

          k = 0.2857 0.2780-0.1158 ( 32140 PWs)   bands (ev):

   -76.8771 -76.8771 -76.8347 -76.8345 -76.7109 -62.8859 -62.8525 -62.8523
   -62.8322 -62.8313 -62.8241 -62.7832 -62.7820 -56.7772 -56.7770 -56.7518
   -45.2866 -45.2865 -45.2819 -45.2818 -45.2779 -45.2779 -45.2613 -45.2612
   -45.2601 -45.2601 -45.2550 -45.2550 -45.2540 -45.2540 -45.2404 -45.2404
   -45.2372 -45.2372 -45.2341 -45.2340 -45.2142 -45.2142 -45.2121 -45.2121
   -45.2093 -45.2093 -45.2082 -45.2081 -45.1089 -45.1065 -45.1045 -45.0851
   -45.0828 -45.0749 -45.0746 -31.0569 -31.0540 -31.0058 -30.9971 -30.9937
   -30.9891 -30.9709 -30.9704 -30.9542 -30.9488 -30.9115 -30.9096 -30.8143
   -30.7970 -30.7953 -28.6501 -28.6434 -28.6334 -28.6170 -28.6155 -28.6018
   -28.5985 -28.5837 -28.5805 -28.5789 -28.5723 -28.5712 -28.5488 -28.5426
   -28.5221 -28.5170 -28.4880 -28.4831 -28.4656 -28.4556 -28.4454 -28.4384
   -28.4086 -28.4065 -24.6475 -24.6474 -24.6311 -24.6291 -24.6287 -24.6189
   -24.6171 -24.6077 -24.5810  15.0395  15.4230  15.7597  16.1590  16.4685
    16.4810  16.5677  16.5948  16.6702  16.7376  16.7711  16.8506  16.9725
    17.0332  17.0868  17.1421  17.1884  17.2389  17.2717  17.3136  17.4210
    17.5458  17.5728  17.6186  17.6900  17.7442  17.8049  17.8796  17.9231
    17.9497  18.0603  18.1604  18.2683  18.3421  18.3616  18.4936  18.5093
    18.5312  18.5775  18.5860  18.6220  18.6925  18.7164  18.7487  18.8222
    18.8852  18.9735  18.9878  19.0579  19.0742  19.3182  19.3763  19.3895
    19.4862  19.5195  19.6380  19.6653  19.7116  19.8549  19.9009  20.0241
    20.0640  20.2094  20.3045  20.3953  20.4833  20.5499  20.6332  20.6970
    20.8149  20.8560  21.0306  21.0893  21.1577  21.2308  21.2558  21.2708
    21.3325  21.4194  21.4929  21.5574  21.5809  21.6539  21.7245  22.2045
    22.9889  23.1635  24.0098  24.2636  24.8301  25.2508  25.8564  26.2817
    26.3665  27.2904  27.6229  28.1674  28.4594  29.0193  29.6460  29.7779
    29.7866  31.3752  31.7371  31.8332  32.1040  32.3564  33.0950  33.4121
    33.7053  33.9211  34.1717  34.1969  34.3454  34.7896

          k = 0.2857-0.2778 0.0000 ( 32153 PWs)   bands (ev):

   -76.8771 -76.8771 -76.8347 -76.8345 -76.7109 -62.8859 -62.8525 -62.8524
   -62.8322 -62.8313 -62.8241 -62.7832 -62.7820 -56.7772 -56.7770 -56.7518
   -45.2866 -45.2865 -45.2819 -45.2818 -45.2779 -45.2779 -45.2613 -45.2612
   -45.2601 -45.2601 -45.2550 -45.2550 -45.2540 -45.2540 -45.2404 -45.2404
   -45.2372 -45.2372 -45.2341 -45.2340 -45.2142 -45.2142 -45.2121 -45.2121
   -45.2093 -45.2093 -45.2082 -45.2081 -45.1089 -45.1065 -45.1045 -45.0851
   -45.0828 -45.0749 -45.0746 -31.0572 -31.0538 -31.0057 -30.9975 -30.9932
   -30.9895 -30.9710 -30.9699 -30.9542 -30.9489 -30.9117 -30.9094 -30.8143
   -30.7971 -30.7952 -28.6504 -28.6436 -28.6334 -28.6154 -28.6127 -28.6049
   -28.5984 -28.5883 -28.5805 -28.5793 -28.5713 -28.5697 -28.5485 -28.5380
   -28.5246 -28.5165 -28.4915 -28.4853 -28.4580 -28.4521 -28.4494 -28.4420
   -28.4078 -28.4066 -24.6475 -24.6474 -24.6311 -24.6291 -24.6287 -24.6197
   -24.6163 -24.6077 -24.5810  14.9503  15.3744  15.9357  16.2846  16.3525
    16.4757  16.4950  16.5167  16.6137  16.6967  16.8454  16.8785  17.0885
    17.1183  17.1529  17.1893  17.2888  17.4003  17.4094  17.4252  17.4351
    17.5078  17.5612  17.6134  17.6385  17.6660  17.7270  17.7712  17.8504
    17.8850  17.9211  18.0062  18.1698  18.2288  18.2636  18.3152  18.3749
    18.4918  18.5636  18.7094  18.7251  18.7424  18.8185  18.8654  18.8708
    18.9177  18.9436  19.0307  19.1572  19.2469  19.2886  19.4425  19.4786
    19.5631  19.5790  19.8209  19.8351  19.8391  19.8640  19.9083  20.0025
    20.0252  20.0335  20.0729  20.2443  20.2780  20.3509  20.5002  20.5466
    20.6011  20.6885  20.7777  20.9874  21.0241  21.2414  21.2725  21.4387
    21.4704  21.6457  21.6778  21.6977  21.7151  21.7875  21.8623  22.3713
    22.3876  23.8336  24.5590  24.5766  24.9118  25.4471  25.6286  25.7095
    25.9044  26.4412  26.6342  29.0922  29.1666  29.6579  29.7794  30.2977
    30.4576  30.5615  31.2635  31.3871  31.6277  32.4981  32.5973  33.2161
    33.2707  33.8772  34.3798  34.5207  34.6262  34.8517

          k = 0.2857-0.2775 0.1158 ( 32141 PWs)   bands (ev):

   -76.8771 -76.8771 -76.8347 -76.8345 -76.7109 -62.8859 -62.8525 -62.8523
   -62.8322 -62.8313 -62.8241 -62.7832 -62.7820 -56.7772 -56.7770 -56.7518
   -45.2866 -45.2865 -45.2819 -45.2818 -45.2779 -45.2779 -45.2613 -45.2612
   -45.2601 -45.2601 -45.2550 -45.2550 -45.2540 -45.2540 -45.2404 -45.2404
   -45.2372 -45.2372 -45.2341 -45.2340 -45.2142 -45.2142 -45.2121 -45.2121
   -45.2093 -45.2093 -45.2082 -45.2081 -45.1089 -45.1065 -45.1045 -45.0851
   -45.0828 -45.0749 -45.0746 -31.0570 -31.0540 -31.0058 -30.9972 -30.9936
   -30.9891 -30.9709 -30.9703 -30.9543 -30.9488 -30.9115 -30.9096 -30.8143
   -30.7971 -30.7952 -28.6503 -28.6432 -28.6333 -28.6179 -28.6144 -28.6021
   -28.5984 -28.5835 -28.5805 -28.5793 -28.5720 -28.5711 -28.5496 -28.5420
   -28.5222 -28.5170 -28.4880 -28.4831 -28.4656 -28.4556 -28.4454 -28.4385
   -28.4086 -28.4066 -24.6475 -24.6474 -24.6311 -24.6291 -24.6287 -24.6189
   -24.6171 -24.6077 -24.5810  15.0373  15.4236  15.7595  16.1616  16.4705
    16.4812  16.5669  16.5923  16.6684  16.7395  16.7711  16.8488  16.9719
    17.0355  17.0863  17.1425  17.1874  17.2386  17.2719  17.3135  17.4208
    17.5459  17.5717  17.6198  17.6915  17.7455  17.8044  17.8794  17.9234
    17.9503  18.0592  18.1629  18.2676  18.3399  18.3646  18.4955  18.5114
    18.5303  18.5792  18.5848  18.6211  18.6944  18.7154  18.7499  18.8207
    18.8827  18.9710  18.9857  19.0599  19.0765  19.3160  19.3753  19.3886
    19.4843  19.5166  19.6368  19.6630  19.7135  19.8592  19.9005  20.0262
    20.0667  20.2098  20.3052  20.3960  20.4840  20.5478  20.6311  20.6954
    20.8172  20.8576  21.0306  21.0882  21.1566  21.2315  21.2563  21.2708
    21.3305  21.4184  21.4925  21.5578  21.5815  21.6507  21.7266  22.2007
    22.9896  23.1661  24.0154  24.2696  24.8368  25.2452  25.8467  26.2844
    26.3764  27.2798  27.6203  28.1652  28.4551  29.0112  29.6388  29.7702
    29.7868  31.3792  31.7431  31.8301  32.1010  32.3649  33.0902  33.4172
    33.7008  33.9217  34.1863  34.2094  34.3558  34.7953

          k = 0.2857-0.2780-0.1158 ( 32132 PWs)   bands (ev):

   -76.8771 -76.8771 -76.8347 -76.8345 -76.7109 -62.8859 -62.8525 -62.8523
   -62.8322 -62.8313 -62.8241 -62.7832 -62.7820 -56.7772 -56.7770 -56.7518
   -45.2866 -45.2865 -45.2819 -45.2818 -45.2779 -45.2779 -45.2613 -45.2612
   -45.2601 -45.2601 -45.2550 -45.2550 -45.2540 -45.2540 -45.2404 -45.2404
   -45.2372 -45.2372 -45.2341 -45.2340 -45.2142 -45.2142 -45.2121 -45.2121
   -45.2093 -45.2093 -45.2082 -45.2081 -45.1089 -45.1065 -45.1045 -45.0851
   -45.0828 -45.0749 -45.0746 -31.0567 -31.0543 -31.0059 -30.9976 -30.9932
   -30.9890 -30.9711 -30.9700 -30.9542 -30.9489 -30.9116 -30.9095 -30.8143
   -30.7971 -30.7952 -28.6503 -28.6434 -28.6334 -28.6164 -28.6155 -28.6031
   -28.5972 -28.5842 -28.5805 -28.5781 -28.5726 -28.5721 -28.5483 -28.5428
   -28.5222 -28.5171 -28.4876 -28.4829 -28.4658 -28.4559 -28.4452 -28.4385
   -28.4086 -28.4066 -24.6475 -24.6474 -24.6311 -24.6291 -24.6287 -24.6189
   -24.6171 -24.6077 -24.5810  15.0636  15.3322  15.9618  16.0227  16.4068
    16.4998  16.5931  16.6290  16.6847  16.7141  16.7589  16.8525  16.9647
    17.0207  17.1234  17.1610  17.1981  17.2112  17.2421  17.3358  17.4110
    17.5369  17.5610  17.5799  17.7023  17.7596  17.8097  17.9011  17.9157
    17.9736  18.0577  18.1884  18.2888  18.3312  18.3774  18.4183  18.4900
    18.5302  18.6068  18.6157  18.6449  18.6843  18.7208  18.7698  18.7928
    18.8943  18.9489  18.9707  19.0443  19.0821  19.3214  19.3696  19.4028
    19.4532  19.5465  19.6358  19.6602  19.7045  19.8634  19.9077  20.0322
    20.0562  20.2225  20.3004  20.3984  20.4574  20.5778  20.6078  20.7096
    20.8240  20.8408  21.0340  21.0920  21.1525  21.2267  21.2496  21.2840
    21.3427  21.4063  21.4826  21.5648  21.5780  21.6643  21.7275  22.1916
    22.9831  23.1894  24.0389  24.2358  24.7768  25.3293  25.8307  26.2721
    26.4334  27.1361  27.6083  28.2844  28.4972  29.0676  29.4034  29.8136
    29.8673  31.3662  31.7115  31.8071  32.0806  32.4806  33.0529  33.5287
    33.6858  33.9747  34.0524  34.1859  34.3323  34.7031

          k = 0.2857-0.1388 0.0000 ( 32156 PWs)   bands (ev):

   -76.8772 -76.8771 -76.8347 -76.8345 -76.7109 -62.8859 -62.8525 -62.8524
   -62.8322 -62.8313 -62.8240 -62.7832 -62.7820 -56.7772 -56.7770 -56.7518
   -45.2866 -45.2865 -45.2819 -45.2818 -45.2779 -45.2779 -45.2613 -45.2612
   -45.2601 -45.2601 -45.2550 -45.2550 -45.2540 -45.2540 -45.2404 -45.2404
   -45.2372 -45.2372 -45.2341 -45.2340 -45.2142 -45.2142 -45.2121 -45.2121
   -45.2093 -45.2093 -45.2082 -45.2081 -45.1089 -45.1065 -45.1045 -45.0851
   -45.0828 -45.0749 -45.0746 -31.0579 -31.0537 -31.0063 -30.9971 -30.9938
   -30.9901 -30.9733 -30.9714 -30.9552 -30.9499 -30.9122 -30.9105 -30.8154
   -30.7967 -30.7953 -28.6496 -28.6447 -28.6328 -28.6140 -28.6127 -28.6055
   -28.5978 -28.5869 -28.5800 -28.5768 -28.5721 -28.5692 -28.5479 -28.5373
   -28.5231 -28.5153 -28.4908 -28.4852 -28.4584 -28.4520 -28.4501 -28.4421
   -28.4076 -28.4064 -24.6476 -24.6474 -24.6302 -24.6271 -24.6269 -24.6199
   -24.6163 -24.6076 -24.5798  14.5250  15.3646  15.4725  16.0669  16.0751
    16.2328  16.2991  16.3599  16.4090  16.5392  16.5867  16.6539  16.6756
    16.7131  16.7686  16.7931  16.8480  16.9176  16.9526  17.4657  17.4772
    17.5276  17.5367  17.6398  17.6453  18.0632  18.0931  18.1057  18.1147
    18.1563  18.1903  18.4199  18.4588  18.4740  18.5016  18.6023  18.6975
    18.7075  18.7696  18.7776  18.8015  18.8774  18.9240  18.9458  18.9617
    19.0179  19.0817  19.1137  19.3849  19.3973  19.4445  19.4785  19.5410
    19.6810  19.7071  19.7440  19.7938  19.8194  19.8755  19.9397  19.9798
    20.0692  20.2604  20.3353  20.3715  20.5361  20.7180  20.8345  20.9369
    21.0388  21.0746  21.2146  21.2229  21.2855  21.3931  21.4349  21.4709
    21.4846  21.5564  21.5855  21.6454  21.6739  21.7213  21.7583  22.5492
    23.1670  23.3597  23.6020  23.7101  24.7745  24.8774  24.8917  26.6408
    26.7394  27.1680  27.2140  27.8107  28.2082  28.3980  29.3414  29.8184
    30.1436  30.5521  30.8250  31.0613  31.6905  32.1123  32.1293  32.4829
    32.9922  33.9693  33.9971  34.3024  34.7201  34.8135

          k = 0.2857-0.1386 0.1158 ( 32149 PWs)   bands (ev):

   -76.8772 -76.8771 -76.8347 -76.8345 -76.7109 -62.8859 -62.8525 -62.8523
   -62.8322 -62.8313 -62.8241 -62.7832 -62.7820 -56.7772 -56.7770 -56.7518
   -45.2866 -45.2865 -45.2819 -45.2818 -45.2779 -45.2779 -45.2613 -45.2612
   -45.2601 -45.2601 -45.2550 -45.2550 -45.2540 -45.2540 -45.2404 -45.2404
   -45.2372 -45.2372 -45.2341 -45.2340 -45.2142 -45.2142 -45.2121 -45.2121
   -45.2093 -45.2093 -45.2082 -45.2081 -45.1089 -45.1065 -45.1045 -45.0851
   -45.0828 -45.0749 -45.0746 -31.0574 -31.0542 -31.0066 -30.9974 -30.9936
   -30.9895 -30.9734 -30.9715 -30.9551 -30.9500 -30.9119 -30.9109 -30.8154
   -30.7967 -30.7953 -28.6491 -28.6442 -28.6327 -28.6184 -28.6143 -28.6017
   -28.5983 -28.5823 -28.5796 -28.5774 -28.5720 -28.5698 -28.5487 -28.5421
   -28.5203 -28.5155 -28.4880 -28.4834 -28.4655 -28.4559 -28.4457 -28.4386
   -28.4085 -28.4063 -24.6476 -24.6474 -24.6302 -24.6271 -24.6269 -24.6190
   -24.6172 -24.6076 -24.5798  14.6304  15.0919  15.6553  15.9683  16.1664
    16.3043  16.3746  16.4131  16.5085  16.5286  16.5723  16.6391  16.6613
    16.6729  16.7098  16.7504  16.8189  16.8775  17.0214  17.0758  17.0829
    17.3271  17.7011  17.7439  17.8936  17.9361  18.0167  18.0529  18.1395
    18.3382  18.3938  18.5168  18.5328  18.5871  18.7155  18.7646  18.7834
    18.8283  18.8789  18.9010  18.9395  18.9504  18.9941  19.0207  19.0418
    19.0770  19.0919  19.1112  19.1248  19.2076  19.2268  19.2805  19.3704
    19.3801  19.4318  19.4456  19.5648  19.5906  19.7955  19.8190  20.2606
    20.4871  20.5035  20.5373  20.5984  20.7925  20.8848  20.9099  20.9820
    21.1215  21.1436  21.2113  21.2478  21.2779  21.3359  21.3792  21.4347
    21.4557  21.4893  21.5220  21.6071  21.6219  21.6804  21.7505  22.0438
    22.4900  23.0224  23.8700  24.3133  25.1616  25.2131  25.3276  25.5747
    26.0782  27.7230  27.8661  28.0766  28.2495  28.4394  28.6437  28.8755
    29.5912  31.2748  31.4480  31.6572  31.8345  32.1959  32.4497  32.6987
    32.9015  33.3007  33.5116  34.2823  34.5683  34.9331

          k = 0.2857-0.1390-0.1158 ( 32139 PWs)   bands (ev):

   -76.8772 -76.8771 -76.8347 -76.8345 -76.7109 -62.8859 -62.8525 -62.8523
   -62.8322 -62.8313 -62.8241 -62.7832 -62.7820 -56.7772 -56.7770 -56.7518
   -45.2866 -45.2865 -45.2819 -45.2818 -45.2779 -45.2779 -45.2613 -45.2612
   -45.2601 -45.2601 -45.2550 -45.2550 -45.2540 -45.2540 -45.2404 -45.2404
   -45.2372 -45.2372 -45.2341 -45.2340 -45.2142 -45.2142 -45.2121 -45.2121
   -45.2093 -45.2093 -45.2082 -45.2081 -45.1089 -45.1065 -45.1045 -45.0851
   -45.0828 -45.0749 -45.0746 -31.0570 -31.0546 -31.0067 -30.9980 -30.9929
   -30.9894 -30.9735 -30.9712 -30.9551 -30.9502 -30.9121 -30.9106 -30.8154
   -30.7967 -30.7953 -28.6492 -28.6444 -28.6328 -28.6175 -28.6144 -28.6035
   -28.5959 -28.5830 -28.5797 -28.5763 -28.5722 -28.5717 -28.5471 -28.5431
   -28.5203 -28.5157 -28.4873 -28.4831 -28.4660 -28.4563 -28.4454 -28.4387
   -28.4085 -28.4063 -24.6476 -24.6474 -24.6302 -24.6271 -24.6269 -24.6190
   -24.6171 -24.6076 -24.5798  14.6402  15.0559  15.7529  15.9051  16.1427
    16.3249  16.3780  16.4260  16.4721  16.5221  16.5622  16.6162  16.6542
    16.7130  16.7309  16.7590  16.8317  16.8958  17.0100  17.0480  17.0702
    17.3323  17.6850  17.7239  17.9301  17.9712  17.9926  18.0581  18.1052
    18.3472  18.4190  18.5168  18.5576  18.5773  18.7530  18.7567  18.7942
    18.8132  18.8919  18.9081  18.9201  18.9371  18.9770  19.0112  19.0373
    19.0787  19.0916  19.1071  19.1408  19.2059  19.2263  19.2654  19.3636
    19.3819  19.4158  19.4489  19.5701  19.5954  19.7839  19.8346  20.2569
    20.4754  20.4974  20.5680  20.6101  20.7985  20.8637  20.9155  20.9487
    21.1138  21.1301  21.2287  21.2473  21.2947  21.3399  21.3812  21.4359
    21.4728  21.4931  21.5025  21.5954  21.6291  21.6788  21.7418  22.0399
    22.5219  23.0402  23.8466  24.3038  25.1288  25.2161  25.3462  25.6096
    26.0820  27.4614  28.0179  28.0720  28.2932  28.4695  28.7260  29.0104
    29.4060  31.0376  31.5844  31.6873  31.8979  32.2425  32.4336  32.6665
    32.9475  33.2827  33.4414  34.3209  34.5874  34.9502

          k = 0.4286 0.0003 0.0000 ( 32137 PWs)   bands (ev):

   -76.8771 -76.8771 -76.8345 -76.8345 -76.7111 -62.8850 -62.8506 -62.8506
   -62.8337 -62.8336 -62.8230 -62.7835 -62.7833 -56.7771 -56.7770 -56.7518
   -45.2866 -45.2865 -45.2819 -45.2818 -45.2779 -45.2779 -45.2613 -45.2612
   -45.2601 -45.2601 -45.2550 -45.2550 -45.2540 -45.2540 -45.2404 -45.2404
   -45.2372 -45.2372 -45.2341 -45.2340 -45.2142 -45.2142 -45.2121 -45.2121
   -45.2093 -45.2093 -45.2082 -45.2081 -45.1089 -45.1065 -45.1045 -45.0851
   -45.0828 -45.0749 -45.0746 -31.0628 -31.0495 -31.0190 -30.9973 -30.9955
   -30.9902 -30.9752 -30.9723 -30.9598 -30.9478 -30.9133 -30.9094 -30.8133
   -30.7956 -30.7925 -28.6543 -28.6497 -28.6321 -28.6198 -28.6120 -28.6077
   -28.6032 -28.5876 -28.5817 -28.5790 -28.5728 -28.5655 -28.5484 -28.5406
   -28.5250 -28.5148 -28.4874 -28.4738 -28.4568 -28.4493 -28.4459 -28.4407
   -28.4050 -28.4035 -24.6488 -24.6485 -24.6296 -24.6256 -24.6255 -24.6195
   -24.6160 -24.6087 -24.5788  15.2216  15.4191  15.5957  15.6730  15.9050
    15.9103  16.0682  16.2325  16.4831  16.4946  16.7030  16.7166  16.7290
    16.7551  16.7842  16.9934  17.0638  17.4011  17.4447  17.5131  17.5622
    17.6088  17.7188  17.8432  17.9923  18.0590  18.3118  18.3493  18.3568
    18.3892  18.4256  18.4359  18.4612  18.4842  18.4878  18.5252  18.5852
    18.6042  18.6947  18.7180  18.7261  18.7436  18.8052  18.8109  18.8933
    18.9021  18.9349  19.0062  19.1683  19.1861  19.3432  19.4545  19.4555
    19.5073  19.5239  19.5959  19.7557  19.8398  20.1131  20.2560  20.2599
    20.4243  20.6250  20.9393  20.9595  20.9639  21.0570  21.0695  21.0875
    21.1108  21.1660  21.1862  21.3225  21.3366  21.3515  21.4843  21.5318
    21.5589  21.6113  21.6311  21.7056  21.7678  21.7902  21.9323  22.3774
    22.3849  22.4236  22.4374  22.4757  22.4984  25.9389  25.9590  26.0018
    26.0865  27.1023  27.9157  27.9360  28.0617  28.9961  29.0377  29.0567
    29.1643  29.1901  29.1957  29.9242  31.0236  31.0878  31.1952  31.9363
    31.9826  32.7975  33.2339  33.5126  33.5664  36.0698

          k = 0.4286 0.0006 0.1158 ( 32128 PWs)   bands (ev):

   -76.8771 -76.8771 -76.8345 -76.8345 -76.7111 -62.8850 -62.8506 -62.8506
   -62.8337 -62.8336 -62.8230 -62.7835 -62.7833 -56.7771 -56.7770 -56.7518
   -45.2866 -45.2865 -45.2819 -45.2818 -45.2779 -45.2779 -45.2613 -45.2612
   -45.2601 -45.2601 -45.2550 -45.2550 -45.2540 -45.2540 -45.2404 -45.2404
   -45.2372 -45.2372 -45.2341 -45.2340 -45.2142 -45.2142 -45.2121 -45.2121
   -45.2093 -45.2093 -45.2082 -45.2081 -45.1089 -45.1065 -45.1045 -45.0851
   -45.0828 -45.0749 -45.0746 -31.0616 -31.0511 -31.0190 -30.9986 -30.9942
   -30.9892 -30.9757 -30.9718 -30.9599 -30.9482 -30.9128 -30.9099 -30.8133
   -30.7956 -30.7925 -28.6531 -28.6497 -28.6321 -28.6253 -28.6151 -28.6023
   -28.5983 -28.5878 -28.5816 -28.5775 -28.5728 -28.5686 -28.5524 -28.5379
   -28.5230 -28.5168 -28.4874 -28.4742 -28.4556 -28.4493 -28.4477 -28.4390
   -28.4050 -28.4039 -24.6488 -24.6485 -24.6296 -24.6256 -24.6255 -24.6186
   -24.6169 -24.6087 -24.5788  15.2919  15.4307  15.6165  15.7115  15.8932
    16.0048  16.0968  16.1633  16.3069  16.3575  16.4694  16.6331  16.8078
    16.9540  16.9733  17.0396  17.1646  17.3237  17.3445  17.3965  17.5178
    17.5820  17.6449  17.8845  17.9120  18.0418  18.1650  18.2413  18.2832
    18.3006  18.3582  18.3904  18.4417  18.4769  18.5121  18.5369  18.5617
    18.6250  18.6493  18.7139  18.7814  18.8097  18.8344  18.8838  18.9169
    19.0909  19.1175  19.1564  19.2951  19.3508  19.3988  19.5509  19.5883
    19.6123  19.7847  19.8984  19.9550  20.0272  20.0939  20.1208  20.3274
    20.4155  20.4460  20.5030  20.5763  20.7271  20.8761  20.9309  21.0994
    21.1234  21.2375  21.2756  21.2935  21.3661  21.3828  21.4182  21.4271
    21.4893  21.5408  21.6073  21.6249  21.6680  21.6763  21.7257  21.7956
    21.8109  22.9604  23.0944  23.2491  23.3081  24.5519  24.6260  27.1242
    27.3276  27.5354  27.8274  28.0290  28.2257  28.3462  28.6390  29.0549
    29.1629  29.3406  29.4708  29.8515  30.1044  30.2249  31.4578  31.9584
    32.5550  33.7868  34.0007  34.0523  34.1317  34.4689

          k = 0.4286 0.0001-0.1158 ( 32131 PWs)   bands (ev):

   -76.8771 -76.8771 -76.8345 -76.8345 -76.7111 -62.8850 -62.8506 -62.8506
   -62.8337 -62.8336 -62.8230 -62.7835 -62.7833 -56.7771 -56.7770 -56.7518
   -45.2866 -45.2865 -45.2819 -45.2818 -45.2779 -45.2779 -45.2613 -45.2612
   -45.2601 -45.2601 -45.2550 -45.2550 -45.2540 -45.2540 -45.2404 -45.2404
   -45.2372 -45.2372 -45.2341 -45.2340 -45.2142 -45.2142 -45.2121 -45.2121
   -45.2093 -45.2093 -45.2082 -45.2081 -45.1089 -45.1065 -45.1045 -45.0851
   -45.0828 -45.0749 -45.0746 -31.0615 -31.0511 -31.0190 -30.9986 -30.9942
   -30.9893 -30.9757 -30.9718 -30.9599 -30.9482 -30.9127 -30.9099 -30.8133
   -30.7956 -30.7925 -28.6532 -28.6496 -28.6321 -28.6255 -28.6150 -28.6025
   -28.5980 -28.5880 -28.5817 -28.5777 -28.5727 -28.5683 -28.5528 -28.5377
   -28.5231 -28.5168 -28.4874 -28.4743 -28.4553 -28.4497 -28.4475 -28.4390
   -28.4050 -28.4039 -24.6488 -24.6485 -24.6296 -24.6256 -24.6255 -24.6186
   -24.6168 -24.6087 -24.5788  15.2918  15.4309  15.6163  15.7114  15.8933
    16.0047  16.0968  16.1632  16.3077  16.3568  16.4694  16.6331  16.8079
    16.9538  16.9735  17.0393  17.1645  17.3237  17.3445  17.3965  17.5180
    17.5820  17.6449  17.8845  17.9118  18.0420  18.1668  18.2402  18.2828
    18.2992  18.3594  18.3890  18.4409  18.4782  18.5130  18.5353  18.5612
    18.6290  18.6514  18.7106  18.7806  18.8093  18.8350  18.8829  18.9177
    19.0900  19.1191  19.1558  19.2946  19.3505  19.3990  19.5500  19.5897
    19.6124  19.7850  19.8984  19.9545  20.0269  20.0944  20.1205  20.3275
    20.4151  20.4461  20.5031  20.5766  20.7269  20.8764  20.9309  21.0989
    21.1233  21.2391  21.2756  21.2919  21.3666  21.3823  21.4179  21.4279
    21.4893  21.5409  21.6072  21.6246  21.6678  21.6766  21.7255  21.7957
    21.8111  22.9601  23.0948  23.2496  23.3075  24.5506  24.6273  27.1242
    27.3307  27.5322  27.8270  28.0328  28.2217  28.3474  28.6387  29.0569
    29.1627  29.3352  29.4723  29.8515  30.1008  30.2295  31.4593  31.9581
    32.5550  33.7866  33.9997  34.0515  34.1328  34.4691

          k = 0.4286 0.1393 0.0000 ( 32155 PWs)   bands (ev):

   -76.8771 -76.8771 -76.8345 -76.8345 -76.7111 -62.8850 -62.8506 -62.8506
   -62.8337 -62.8336 -62.8230 -62.7835 -62.7833 -56.7772 -56.7770 -56.7518
   -45.2866 -45.2865 -45.2819 -45.2818 -45.2779 -45.2779 -45.2613 -45.2612
   -45.2601 -45.2601 -45.2550 -45.2550 -45.2540 -45.2540 -45.2404 -45.2404
   -45.2372 -45.2372 -45.2341 -45.2340 -45.2142 -45.2142 -45.2121 -45.2121
   -45.2093 -45.2093 -45.2082 -45.2081 -45.1089 -45.1065 -45.1045 -45.0851
   -45.0828 -45.0749 -45.0746 -31.0622 -31.0498 -31.0179 -30.9973 -30.9954
   -30.9892 -30.9738 -30.9712 -30.9603 -30.9472 -30.9126 -30.9091 -30.8126
   -30.7954 -30.7928 -28.6566 -28.6486 -28.6319 -28.6197 -28.6121 -28.6083
   -28.6035 -28.5870 -28.5836 -28.5791 -28.5735 -28.5659 -28.5476 -28.5414
   -28.5259 -28.5155 -28.4875 -28.4739 -28.4564 -28.4494 -28.4458 -28.4408
   -28.4052 -28.4035 -24.6487 -24.6485 -24.6300 -24.6268 -24.6267 -24.6195
   -24.6160 -24.6088 -24.5796  15.3687  15.5045  15.7589  15.8636  16.0381
    16.1177  16.2725  16.3987  16.6332  16.6780  16.8212  16.8299  16.8571
    16.8768  16.9448  17.0769  17.1398  17.4316  17.4868  17.5806  17.6478
    17.6910  17.8040  17.9040  17.9860  18.0551  18.1390  18.2159  18.2295
    18.2687  18.2900  18.3738  18.3924  18.4032  18.4371  18.4506  18.4782
    18.4899  18.5686  18.6056  18.6458  18.7172  18.7394  18.7863  18.8089
    18.8741  19.0288  19.0504  19.0746  19.1868  19.3385  19.3861  19.3992
    19.4897  19.5405  19.6274  19.7367  19.9375  20.0248  20.0927  20.1759
    20.2597  20.3086  20.3423  20.4039  20.4574  20.7529  20.8274  20.9026
    20.9090  21.0107  21.1206  21.1729  21.1831  21.1917  21.2865  21.3791
    21.4227  21.4621  21.5769  21.6286  21.7126  21.7320  21.8649  21.9083
    22.9514  22.9969  23.2108  23.4535  23.5138  24.5415  24.6503  25.7771
    25.9926  27.6403  28.0909  28.2228  28.4663  28.7080  29.1494  29.3980
    29.4734  29.7716  30.0464  30.6063  30.6431  31.7545  32.0953  32.4945
    32.9263  33.6254  33.6798  34.1236  34.3345  34.6903

          k = 0.4286 0.1395 0.1158 ( 32169 PWs)   bands (ev):

   -76.8771 -76.8771 -76.8345 -76.8345 -76.7111 -62.8850 -62.8506 -62.8506
   -62.8337 -62.8336 -62.8230 -62.7835 -62.7833 -56.7772 -56.7770 -56.7518
   -45.2866 -45.2865 -45.2819 -45.2818 -45.2779 -45.2779 -45.2613 -45.2612
   -45.2601 -45.2601 -45.2550 -45.2550 -45.2540 -45.2540 -45.2404 -45.2404
   -45.2372 -45.2372 -45.2341 -45.2340 -45.2142 -45.2142 -45.2121 -45.2121
   -45.2093 -45.2093 -45.2082 -45.2081 -45.1089 -45.1065 -45.1045 -45.0851
   -45.0828 -45.0749 -45.0746 -31.0610 -31.0514 -31.0180 -30.9986 -30.9942
   -30.9884 -30.9743 -30.9707 -30.9603 -30.9476 -30.9122 -30.9096 -30.8126
   -30.7954 -30.7928 -28.6551 -28.6488 -28.6319 -28.6264 -28.6147 -28.6033
   -28.5980 -28.5877 -28.5836 -28.5767 -28.5735 -28.5689 -28.5520 -28.5386
   -28.5236 -28.5172 -28.4878 -28.4747 -28.4553 -28.4493 -28.4477 -28.4389
   -28.4052 -28.4039 -24.6487 -24.6485 -24.6300 -24.6268 -24.6267 -24.6186
   -24.6169 -24.6088 -24.5796  15.4453  15.5422  15.7829  15.9168  16.0631
    16.1479  16.2641  16.3149  16.3947  16.5331  16.6561  16.8377  16.9062
    17.0152  17.0716  17.1384  17.3044  17.3412  17.4245  17.5037  17.5374
    17.6407  17.7319  17.8230  17.9087  18.0292  18.0437  18.0982  18.1996
    18.2168  18.2497  18.3033  18.3800  18.3997  18.4517  18.4622  18.4963
    18.6347  18.6924  18.7333  18.7727  18.8112  18.8191  18.8785  18.9306
    18.9406  18.9998  19.1704  19.1919  19.2645  19.3492  19.4120  19.4603
    19.5361  19.8179  19.8379  19.8747  19.9128  19.9648  20.0089  20.0557
    20.1038  20.2082  20.2171  20.2364  20.3630  20.5840  20.6760  20.7790
    20.9897  21.0590  21.1056  21.1648  21.1931  21.2969  21.3113  21.3452
    21.3979  21.4393  21.4493  21.5723  21.5851  21.7448  22.2086  22.3054
    22.4557  22.6876  23.3886  23.7436  23.7487  23.9095  24.8151  25.5732
    26.6937  26.8834  27.9727  28.1249  28.5137  29.1189  29.2950  29.7547
    29.8137  29.9753  30.3013  30.4168  31.2045  31.3013  31.6603  31.7942
    32.2336  32.6938  33.7093  34.2952  34.9061  35.5700

          k = 0.4286 0.1391-0.1158 ( 32174 PWs)   bands (ev):

   -76.8771 -76.8771 -76.8345 -76.8345 -76.7111 -62.8850 -62.8506 -62.8506
   -62.8337 -62.8336 -62.8230 -62.7835 -62.7833 -56.7772 -56.7770 -56.7518
   -45.2866 -45.2865 -45.2819 -45.2818 -45.2779 -45.2779 -45.2613 -45.2612
   -45.2601 -45.2601 -45.2550 -45.2550 -45.2540 -45.2540 -45.2404 -45.2404
   -45.2372 -45.2372 -45.2341 -45.2340 -45.2142 -45.2142 -45.2121 -45.2121
   -45.2093 -45.2093 -45.2082 -45.2081 -45.1089 -45.1065 -45.1045 -45.0851
   -45.0828 -45.0749 -45.0746 -31.0616 -31.0507 -31.0180 -30.9978 -30.9949
   -30.9885 -30.9739 -30.9713 -30.9603 -30.9473 -30.9121 -30.9096 -30.8126
   -30.7954 -30.7928 -28.6554 -28.6486 -28.6319 -28.6260 -28.6146 -28.6045
   -28.5965 -28.5879 -28.5833 -28.5784 -28.5733 -28.5680 -28.5523 -28.5384
   -28.5238 -28.5175 -28.4875 -28.4745 -28.4549 -28.4499 -28.4474 -28.4392
   -28.4052 -28.4038 -24.6487 -24.6485 -24.6300 -24.6268 -24.6267 -24.6186
   -24.6169 -24.6088 -24.5796  15.4440  15.5528  15.7661  15.9013  16.0874
    16.1315  16.2863  16.3384  16.4269  16.4728  16.6511  16.8263  16.9122
    17.0041  17.0592  17.1563  17.2948  17.3634  17.4214  17.4877  17.5588
    17.6317  17.7500  17.8304  17.9216  18.0300  18.0659  18.1200  18.1679
    18.1918  18.2404  18.2752  18.3617  18.3862  18.4384  18.4773  18.5487
    18.6398  18.6844  18.7387  18.7892  18.8268  18.8445  18.8502  18.9068
    18.9532  18.9709  19.1571  19.2053  19.2435  19.3416  19.4154  19.4659
    19.5258  19.8217  19.8464  19.8778  19.9260  19.9878  20.0492  20.0542
    20.1018  20.1677  20.2123  20.2346  20.3595  20.5667  20.6804  20.7825
    21.0099  21.0629  21.0880  21.1537  21.2207  21.2955  21.3107  21.3340
    21.4120  21.4365  21.4395  21.5669  21.5806  21.7353  22.1965  22.3508
    22.4493  22.7031  23.3700  23.6484  23.8131  23.9296  24.7844  25.5953
    26.6986  26.9668  27.9674  28.0827  28.4684  28.8431  29.4745  29.8527
    29.9018  30.1165  30.1489  30.3405  31.2040  31.3079  31.7474  31.7625
    32.2808  32.6525  33.6530  34.2663  34.8712  35.5074

          k = 0.4286 0.2783 0.0000 ( 32155 PWs)   bands (ev):

   -76.8771 -76.8771 -76.8345 -76.8345 -76.7111 -62.8850 -62.8506 -62.8506
   -62.8337 -62.8336 -62.8230 -62.7835 -62.7833 -56.7772 -56.7770 -56.7518
   -45.2866 -45.2865 -45.2819 -45.2818 -45.2779 -45.2779 -45.2613 -45.2612
   -45.2601 -45.2601 -45.2550 -45.2550 -45.2540 -45.2540 -45.2404 -45.2404
   -45.2372 -45.2372 -45.2341 -45.2340 -45.2142 -45.2142 -45.2121 -45.2121
   -45.2093 -45.2093 -45.2082 -45.2081 -45.1089 -45.1065 -45.1045 -45.0851
   -45.0828 -45.0749 -45.0746 -31.0613 -31.0504 -31.0162 -30.9976 -30.9950
   -30.9878 -30.9715 -30.9694 -30.9611 -30.9463 -30.9116 -30.9085 -30.8116
   -30.7952 -30.7933 -28.6605 -28.6468 -28.6317 -28.6199 -28.6127 -28.6090
   -28.6035 -28.5863 -28.5860 -28.5799 -28.5746 -28.5662 -28.5465 -28.5425
   -28.5273 -28.5167 -28.4875 -28.4742 -28.4559 -28.4495 -28.4458 -28.4410
   -28.4054 -28.4035 -24.6486 -24.6484 -24.6306 -24.6287 -24.6286 -24.6194
   -24.6160 -24.6090 -24.5808  15.5970  15.6473  16.0481  16.3337  16.4103
    16.5219  16.5930  16.7741  16.8799  17.0064  17.1000  17.1399  17.1970
    17.2077  17.2245  17.2877  17.4556  17.5724  17.5924  17.6709  17.7734
    17.8022  17.8159  17.8349  17.8636  17.8959  17.9125  17.9556  17.9822
    18.0501  18.0596  18.0885  18.1089  18.1799  18.3030  18.3089  18.3219
    18.4355  18.4505  18.5637  18.5987  18.6755  18.7204  18.7763  18.7977
    18.9335  18.9385  19.0391  19.0433  19.1673  19.2694  19.2743  19.3472
    19.3788  19.4222  19.4781  19.5076  19.5282  19.5982  19.6241  19.7285
    19.7984  19.8217  19.9557  20.0772  20.0965  20.2963  20.3179  20.5428
    20.5820  20.6364  20.7019  20.8011  20.9849  21.1877  21.2011  21.2979
    21.3807  21.4939  21.5205  21.5753  21.6743  21.9690  22.6319  22.6793
    22.7612  23.4217  23.4712  23.9093  24.1083  24.7789  24.9122  25.1944
    25.2417  26.8413  26.8604  27.9071  28.2698  28.5862  29.1299  30.4748
    31.6438  31.6492  32.0509  32.4833  32.6484  32.9580  33.0101  33.0675
    33.4642  33.5644  33.8603  34.0828  34.4329  34.5821

          k = 0.4286 0.2785 0.1158 ( 32176 PWs)   bands (ev):

   -76.8771 -76.8771 -76.8345 -76.8345 -76.7111 -62.8850 -62.8506 -62.8506
   -62.8337 -62.8336 -62.8230 -62.7835 -62.7833 -56.7772 -56.7770 -56.7518
   -45.2866 -45.2865 -45.2819 -45.2818 -45.2779 -45.2779 -45.2613 -45.2612
   -45.2601 -45.2601 -45.2550 -45.2550 -45.2540 -45.2540 -45.2404 -45.2404
   -45.2372 -45.2372 -45.2341 -45.2340 -45.2142 -45.2142 -45.2121 -45.2121
   -45.2093 -45.2093 -45.2082 -45.2081 -45.1089 -45.1065 -45.1045 -45.0851
   -45.0828 -45.0749 -45.0746 -31.0607 -31.0511 -31.0162 -30.9977 -30.9949
   -30.9872 -30.9716 -30.9696 -30.9611 -30.9464 -30.9113 -30.9089 -30.8116
   -30.7952 -30.7933 -28.6587 -28.6470 -28.6318 -28.6276 -28.6140 -28.6057
   -28.5969 -28.5877 -28.5855 -28.5776 -28.5743 -28.5689 -28.5514 -28.5396
   -28.5248 -28.5182 -28.4881 -28.4751 -28.4547 -28.4494 -28.4475 -28.4390
   -28.4055 -28.4038 -24.6486 -24.6484 -24.6306 -24.6287 -24.6286 -24.6186
   -24.6169 -24.6090 -24.5808  15.6849  15.7284  16.0767  16.3833  16.3942
    16.5421  16.6064  16.6781  16.7232  16.8674  16.9094  17.0327  17.1197
    17.1420  17.2582  17.3854  17.4438  17.5262  17.5646  17.6165  17.6815
    17.7339  17.7846  17.8541  17.8896  17.9403  17.9784  18.0468  18.0620
    18.0695  18.1084  18.1811  18.2403  18.2648  18.3293  18.4310  18.4874
    18.5054  18.5213  18.5834  18.6355  18.6621  18.6648  18.7465  18.7902
    18.8846  18.9311  18.9748  19.1162  19.1372  19.1867  19.2192  19.2573
    19.2974  19.3260  19.4299  19.4456  19.5337  19.6070  19.6980  19.7494
    19.7623  19.8841  19.9519  20.1467  20.2897  20.3622  20.4324  20.6046
    20.6429  20.7520  20.7824  20.8796  20.9246  20.9395  21.1206  21.2094
    21.2946  21.3599  21.3859  21.4910  21.8933  22.0962  22.4803  22.6876
    23.0254  23.2822  23.3781  24.0734  24.0971  24.4510  24.6844  25.2902
    25.4625  25.7977  26.8015  28.4717  29.0436  29.7706  30.1907  30.4513
    30.7202  31.0808  31.2234  31.9123  32.2681  32.4705  32.5608  32.7495
    33.3099  33.5122  33.7727  33.9390  34.6288  34.8903

          k = 0.4286 0.2781-0.1158 ( 32162 PWs)   bands (ev):

   -76.8771 -76.8771 -76.8345 -76.8345 -76.7111 -62.8850 -62.8506 -62.8506
   -62.8337 -62.8336 -62.8230 -62.7835 -62.7833 -56.7772 -56.7770 -56.7518
   -45.2866 -45.2865 -45.2819 -45.2818 -45.2779 -45.2779 -45.2613 -45.2612
   -45.2601 -45.2601 -45.2550 -45.2550 -45.2540 -45.2540 -45.2404 -45.2404
   -45.2372 -45.2372 -45.2341 -45.2340 -45.2142 -45.2142 -45.2121 -45.2121
   -45.2093 -45.2093 -45.2082 -45.2081 -45.1089 -45.1065 -45.1045 -45.0851
   -45.0828 -45.0749 -45.0746 -31.0611 -31.0507 -31.0162 -30.9965 -30.9961
   -30.9873 -30.9710 -30.9704 -30.9611 -30.9462 -30.9112 -30.9089 -30.8116
   -30.7952 -30.7933 -28.6589 -28.6469 -28.6318 -28.6274 -28.6139 -28.6062
   -28.5959 -28.5880 -28.5853 -28.5788 -28.5740 -28.5681 -28.5519 -28.5393
   -28.5249 -28.5184 -28.4879 -28.4750 -28.4544 -28.4499 -28.4473 -28.4391
   -28.4055 -28.4038 -24.6486 -24.6484 -24.6306 -24.6287 -24.6286 -24.6186
   -24.6169 -24.6090 -24.5808  15.6863  15.7307  16.0628  16.3250  16.4935
    16.5489  16.6214  16.6868  16.7185  16.8154  16.8698  17.0079  17.1261
    17.1971  17.2175  17.4242  17.4299  17.5295  17.5894  17.5916  17.7044
    17.7373  17.7884  17.9010  17.9170  17.9605  17.9781  18.0063  18.0315
    18.0677  18.0939  18.1768  18.2260  18.2729  18.3066  18.4215  18.4553
    18.4892  18.5441  18.6038  18.6160  18.6451  18.7039  18.7650  18.7863
    18.8701  18.9260  18.9827  19.1226  19.1629  19.1759  19.2262  19.2602
    19.2728  19.3173  19.4283  19.4613  19.5560  19.6036  19.7079  19.7380
    19.7611  19.8832  19.9337  20.1550  20.2917  20.3704  20.4204  20.5906
    20.6721  20.7180  20.7894  20.8938  20.9210  20.9449  21.1113  21.2418
    21.2945  21.3479  21.3677  21.4885  21.9187  22.0858  22.4414  22.7068
    23.0897  23.2721  23.3254  24.0148  24.2017  24.4219  24.6559  25.3336
    25.4455  25.7971  26.8007  28.4654  29.0363  29.7453  30.1497  30.4494
    30.8873  31.1047  31.1983  31.8213  32.3160  32.4308  32.5440  32.7456
    33.3078  33.4907  33.7566  33.9678  34.6602  34.9172

          k = 0.4286-0.2776 0.0000 ( 32154 PWs)   bands (ev):

   -76.8771 -76.8771 -76.8345 -76.8345 -76.7111 -62.8850 -62.8506 -62.8506
   -62.8337 -62.8336 -62.8230 -62.7835 -62.7833 -56.7772 -56.7770 -56.7518
   -45.2866 -45.2865 -45.2819 -45.2818 -45.2779 -45.2779 -45.2613 -45.2612
   -45.2601 -45.2601 -45.2550 -45.2550 -45.2540 -45.2540 -45.2404 -45.2404
   -45.2372 -45.2372 -45.2341 -45.2340 -45.2142 -45.2142 -45.2121 -45.2121
   -45.2093 -45.2093 -45.2082 -45.2081 -45.1089 -45.1065 -45.1045 -45.0851
   -45.0828 -45.0749 -45.0746 -31.0613 -31.0504 -31.0162 -30.9976 -30.9950
   -30.9878 -30.9715 -30.9693 -30.9611 -30.9463 -30.9116 -30.9085 -30.8116
   -30.7952 -30.7933 -28.6606 -28.6467 -28.6316 -28.6199 -28.6127 -28.6091
   -28.6035 -28.5862 -28.5860 -28.5800 -28.5746 -28.5661 -28.5465 -28.5425
   -28.5273 -28.5167 -28.4875 -28.4742 -28.4559 -28.4495 -28.4458 -28.4410
   -28.4054 -28.4035 -24.6486 -24.6484 -24.6306 -24.6287 -24.6286 -24.6194
   -24.6160 -24.6090 -24.5808  15.5963  15.6478  16.0479  16.3353  16.4113
    16.5216  16.5907  16.7716  16.8784  17.0077  17.1003  17.1374  17.1967
    17.2089  17.2258  17.2859  17.4558  17.5727  17.5933  17.6720  17.7738
    17.8027  17.8169  17.8356  17.8647  17.8967  17.9134  17.9581  17.9839
    18.0499  18.0593  18.0883  18.1103  18.1801  18.3031  18.3078  18.3210
    18.4345  18.4490  18.5619  18.5998  18.6743  18.7234  18.7764  18.7986
    18.9314  18.9364  19.0345  19.0408  19.1669  19.2688  19.2750  19.3508
    19.3826  19.4253  19.4774  19.5091  19.5297  19.5936  19.6204  19.7303
    19.7984  19.8219  19.9572  20.0788  20.0974  20.2945  20.3165  20.5409
    20.5827  20.6359  20.7029  20.8034  20.9861  21.1879  21.2002  21.2988
    21.3793  21.4940  21.5218  21.5744  21.6715  21.9697  22.6266  22.6743
    22.7580  23.4286  23.4782  23.9177  24.1165  24.7694  24.9051  25.1913
    25.2399  26.8450  26.8661  27.9101  28.2614  28.5856  29.1270  30.4612
    31.6326  31.6374  32.0602  32.4809  32.6497  32.9726  33.0245  33.0772
    33.4712  33.5711  33.8624  34.0864  34.4455  34.5951

          k = 0.4286-0.2774 0.1158 ( 32166 PWs)   bands (ev):

   -76.8771 -76.8771 -76.8345 -76.8345 -76.7111 -62.8850 -62.8506 -62.8506
   -62.8337 -62.8336 -62.8230 -62.7835 -62.7833 -56.7772 -56.7770 -56.7518
   -45.2866 -45.2865 -45.2819 -45.2818 -45.2779 -45.2779 -45.2613 -45.2612
   -45.2601 -45.2601 -45.2550 -45.2550 -45.2540 -45.2540 -45.2404 -45.2404
   -45.2372 -45.2372 -45.2341 -45.2340 -45.2142 -45.2142 -45.2121 -45.2121
   -45.2093 -45.2093 -45.2082 -45.2081 -45.1089 -45.1065 -45.1045 -45.0851
   -45.0828 -45.0749 -45.0746 -31.0611 -31.0507 -31.0162 -30.9965 -30.9961
   -30.9873 -30.9710 -30.9704 -30.9612 -30.9461 -30.9112 -30.9089 -30.8116
   -30.7952 -30.7933 -28.6589 -28.6469 -28.6318 -28.6275 -28.6139 -28.6059
   -28.5965 -28.5876 -28.5854 -28.5784 -28.5743 -28.5686 -28.5513 -28.5396
   -28.5249 -28.5183 -28.4880 -28.4749 -28.4547 -28.4495 -28.4475 -28.4391
   -28.4055 -28.4038 -24.6486 -24.6484 -24.6306 -24.6288 -24.6286 -24.6186
   -24.6169 -24.6090 -24.5808  15.6857  15.7309  16.0622  16.3261  16.4948
    16.5475  16.6212  16.6881  16.7178  16.8158  16.8695  17.0058  17.1232
    17.1960  17.2163  17.4244  17.4306  17.5296  17.5900  17.5930  17.7045
    17.7368  17.7888  17.9017  17.9196  17.9599  17.9781  18.0066  18.0320
    18.0674  18.0944  18.1779  18.2289  18.2742  18.3079  18.4231  18.4560
    18.4896  18.5453  18.6047  18.6144  18.6439  18.7039  18.7626  18.7851
    18.8681  18.9262  18.9838  19.1195  19.1619  19.1743  19.2255  19.2585
    19.2700  19.3169  19.4288  19.4624  19.5552  19.6046  19.7114  19.7408
    19.7637  19.8817  19.9340  20.1567  20.2946  20.3685  20.4180  20.5923
    20.6702  20.7162  20.7899  20.8941  20.9203  20.9441  21.1101  21.2414
    21.2951  21.3473  21.3663  21.4875  21.9207  22.0832  22.4455  22.7122
    23.0902  23.2678  23.3232  24.0072  24.1975  24.4274  24.6657  25.3402
    25.4535  25.7885  26.7892  28.4611  29.0411  29.7476  30.1442  30.4449
    30.8770  31.0949  31.2022  31.8257  32.3251  32.4242  32.5549  32.7444
    33.3205  33.4969  33.7593  33.9763  34.6648  34.9043

          k = 0.4286-0.2779-0.1158 ( 32173 PWs)   bands (ev):

   -76.8771 -76.8771 -76.8345 -76.8345 -76.7111 -62.8850 -62.8506 -62.8506
   -62.8337 -62.8336 -62.8230 -62.7835 -62.7833 -56.7772 -56.7770 -56.7518
   -45.2866 -45.2865 -45.2819 -45.2818 -45.2779 -45.2779 -45.2613 -45.2612
   -45.2601 -45.2601 -45.2550 -45.2550 -45.2540 -45.2540 -45.2404 -45.2404
   -45.2372 -45.2372 -45.2341 -45.2340 -45.2142 -45.2142 -45.2121 -45.2121
   -45.2093 -45.2093 -45.2082 -45.2081 -45.1089 -45.1065 -45.1045 -45.0851
   -45.0828 -45.0749 -45.0746 -31.0607 -31.0511 -31.0162 -30.9977 -30.9949
   -30.9872 -30.9716 -30.9696 -30.9611 -30.9463 -30.9112 -30.9089 -30.8116
   -30.7952 -30.7933 -28.6589 -28.6468 -28.6318 -28.6277 -28.6139 -28.6059
   -28.5963 -28.5880 -28.5856 -28.5780 -28.5740 -28.5685 -28.5519 -28.5393
   -28.5248 -28.5182 -28.4880 -28.4752 -28.4544 -28.4498 -28.4474 -28.4390
   -28.4055 -28.4038 -24.6486 -24.6484 -24.6306 -24.6288 -24.6286 -24.6186
   -24.6169 -24.6090 -24.5808  15.6844  15.7285  16.0773  16.3825  16.3942
    16.5437  16.6061  16.6771  16.7245  16.8670  16.9096  17.0305  17.1160
    17.1413  17.2569  17.3864  17.4442  17.5263  17.5652  17.6169  17.6816
    17.7342  17.7855  17.8552  17.8915  17.9410  17.9786  18.0493  18.0617
    18.0694  18.1069  18.1823  18.2412  18.2677  18.3304  18.4316  18.4884
    18.5061  18.5241  18.5821  18.6348  18.6617  18.6637  18.7446  18.7886
    18.8819  18.9308  18.9762  19.1142  19.1358  19.1852  19.2180  19.2546
    19.2946  19.3265  19.4303  19.4481  19.5328  19.6085  19.7023  19.7517
    19.7644  19.8818  19.9530  20.1479  20.2903  20.3620  20.4308  20.6060
    20.6407  20.7494  20.7830  20.8801  20.9242  20.9379  21.1199  21.2094
    21.2949  21.3604  21.3839  21.4906  21.8958  22.0934  22.4834  22.6918
    23.0263  23.2775  23.3773  24.0680  24.0925  24.4568  24.6927  25.2961
    25.4697  25.7884  26.7918  28.4692  29.0507  29.7723  30.1839  30.4438
    30.7091  31.0675  31.2274  31.9167  32.2830  32.4626  32.5741  32.7476
    33.3241  33.5160  33.7704  33.9506  34.6405  34.8754

          k = 0.4286-0.1387 0.0000 ( 32159 PWs)   bands (ev):

   -76.8771 -76.8771 -76.8345 -76.8345 -76.7111 -62.8850 -62.8506 -62.8506
   -62.8337 -62.8336 -62.8230 -62.7835 -62.7833 -56.7772 -56.7770 -56.7518
   -45.2866 -45.2865 -45.2819 -45.2818 -45.2779 -45.2779 -45.2613 -45.2612
   -45.2601 -45.2601 -45.2550 -45.2550 -45.2540 -45.2540 -45.2404 -45.2404
   -45.2372 -45.2372 -45.2341 -45.2340 -45.2142 -45.2142 -45.2121 -45.2121
   -45.2093 -45.2093 -45.2082 -45.2081 -45.1089 -45.1065 -45.1045 -45.0851
   -45.0828 -45.0749 -45.0746 -31.0622 -31.0498 -31.0179 -30.9974 -30.9953
   -30.9893 -30.9738 -30.9711 -30.9604 -30.9471 -30.9126 -30.9091 -30.8126
   -30.7954 -30.7928 -28.6569 -28.6484 -28.6319 -28.6197 -28.6121 -28.6084
   -28.6034 -28.5871 -28.5837 -28.5791 -28.5734 -28.5658 -28.5477 -28.5413
   -28.5259 -28.5156 -28.4874 -28.4739 -28.4565 -28.4494 -28.4458 -28.4408
   -28.4052 -28.4035 -24.6487 -24.6485 -24.6300 -24.6268 -24.6267 -24.6195
   -24.6160 -24.6088 -24.5796  15.3675  15.5054  15.7586  15.8642  16.0383
    16.1170  16.2719  16.3991  16.6336  16.6786  16.8220  16.8287  16.8562
    16.8762  16.9446  17.0761  17.1389  17.4298  17.4855  17.5808  17.6478
    17.6912  17.8050  17.9056  17.9867  18.0544  18.1424  18.2180  18.2316
    18.2727  18.2914  18.3771  18.3939  18.4040  18.4386  18.4521  18.4793
    18.4925  18.5681  18.6000  18.6413  18.7125  18.7355  18.7834  18.8058
    18.8709  19.0286  19.0566  19.0803  19.1888  19.3345  19.3837  19.3975
    19.4883  19.5406  19.6248  19.7353  19.9399  20.0281  20.0938  20.1746
    20.2611  20.3087  20.3440  20.4060  20.4591  20.7548  20.8319  20.9008
    20.9071  21.0097  21.1195  21.1725  21.1826  21.1917  21.2864  21.3776
    21.4228  21.4629  21.5769  21.6262  21.7093  21.7316  21.8614  21.9043
    22.9557  23.0019  23.2091  23.4542  23.5145  24.5504  24.6584  25.7664
    25.9826  27.6398  28.0988  28.2246  28.4605  28.7060  29.1382  29.3896
    29.4633  29.7675  30.0529  30.6200  30.6565  31.7520  32.0935  32.4920
    32.9249  33.6264  33.6804  34.1302  34.3407  34.6993

          k = 0.4286-0.1384 0.1158 ( 32168 PWs)   bands (ev):

   -76.8771 -76.8771 -76.8345 -76.8345 -76.7111 -62.8850 -62.8506 -62.8506
   -62.8337 -62.8336 -62.8230 -62.7835 -62.7833 -56.7772 -56.7770 -56.7518
   -45.2866 -45.2865 -45.2819 -45.2818 -45.2779 -45.2779 -45.2613 -45.2612
   -45.2601 -45.2601 -45.2550 -45.2550 -45.2540 -45.2540 -45.2404 -45.2404
   -45.2372 -45.2372 -45.2341 -45.2340 -45.2142 -45.2142 -45.2121 -45.2121
   -45.2093 -45.2093 -45.2082 -45.2081 -45.1089 -45.1065 -45.1045 -45.0851
   -45.0828 -45.0749 -45.0746 -31.0616 -31.0507 -31.0179 -30.9977 -30.9950
   -30.9886 -30.9739 -30.9713 -30.9604 -30.9473 -30.9121 -30.9096 -30.8126
   -30.7954 -30.7928 -28.6555 -28.6486 -28.6319 -28.6261 -28.6146 -28.6042
   -28.5969 -28.5876 -28.5833 -28.5781 -28.5733 -28.5684 -28.5519 -28.5387
   -28.5238 -28.5175 -28.4876 -28.4743 -28.4552 -28.4494 -28.4476 -28.4392
   -28.4052 -28.4038 -24.6487 -24.6485 -24.6300 -24.6268 -24.6267 -24.6186
   -24.6169 -24.6088 -24.5796  15.4430  15.5528  15.7662  15.9015  16.0871
    16.1321  16.2859  16.3395  16.4276  16.4720  16.6513  16.8265  16.9110
    17.0020  17.0587  17.1556  17.2945  17.3623  17.4216  17.4863  17.5571
    17.6313  17.7499  17.8302  17.9218  18.0316  18.0692  18.1225  18.1708
    18.1953  18.2453  18.2779  18.3622  18.3879  18.4394  18.4737  18.5500
    18.6371  18.6838  18.7334  18.7875  18.8233  18.8439  18.8542  18.9026
    18.9527  18.9694  19.1565  19.2050  19.2459  19.3425  19.4171  19.4652
    19.5270  19.8205  19.8476  19.8799  19.9243  19.9881  20.0486  20.0527
    20.1033  20.1704  20.2121  20.2345  20.3590  20.5655  20.6795  20.7851
    21.0106  21.0615  21.0873  21.1528  21.2193  21.2946  21.3100  21.3336
    21.4111  21.4351  21.4389  21.5643  21.5802  21.7376  22.1933  22.3539
    22.4528  22.7002  23.3772  23.6506  23.8127  23.9343  24.7748  25.6035
    26.7069  26.9582  27.9582  28.0771  28.4565  28.8354  29.4706  29.8533
    29.9072  30.1154  30.1499  30.3529  31.2139  31.3073  31.7458  31.7621
    32.2884  32.6601  33.6432  34.2634  34.8623  35.5195

          k = 0.4286-0.1389-0.1158 ( 32162 PWs)   bands (ev):

   -76.8771 -76.8771 -76.8345 -76.8345 -76.7111 -62.8850 -62.8506 -62.8506
   -62.8337 -62.8336 -62.8230 -62.7835 -62.7833 -56.7772 -56.7770 -56.7518
   -45.2866 -45.2865 -45.2819 -45.2818 -45.2779 -45.2779 -45.2613 -45.2612
   -45.2601 -45.2601 -45.2550 -45.2550 -45.2540 -45.2540 -45.2404 -45.2404
   -45.2372 -45.2372 -45.2341 -45.2340 -45.2142 -45.2142 -45.2121 -45.2121
   -45.2093 -45.2093 -45.2082 -45.2081 -45.1089 -45.1065 -45.1045 -45.0851
   -45.0828 -45.0749 -45.0746 -31.0610 -31.0514 -31.0179 -30.9986 -30.9942
   -30.9884 -30.9743 -30.9707 -30.9604 -30.9475 -30.9122 -30.9096 -30.8126
   -30.7954 -30.7927 -28.6554 -28.6484 -28.6319 -28.6266 -28.6146 -28.6036
   -28.5975 -28.5880 -28.5837 -28.5769 -28.5732 -28.5686 -28.5525 -28.5383
   -28.5237 -28.5173 -28.4878 -28.4748 -28.4550 -28.4497 -28.4475 -28.4389
   -28.4052 -28.4039 -24.6487 -24.6485 -24.6300 -24.6268 -24.6267 -24.6186
   -24.6169 -24.6088 -24.5796  15.4442  15.5426  15.7828  15.9166  16.0633
    16.1484  16.2636  16.3155  16.3957  16.5326  16.6565  16.8379  16.9052
    17.0122  17.0713  17.1379  17.3039  17.3401  17.4246  17.5026  17.5360
    17.6405  17.7315  17.8229  17.9090  18.0327  18.0466  18.1010  18.2016
    18.2225  18.2511  18.3048  18.3788  18.4006  18.4515  18.4652  18.4986
    18.6312  18.6881  18.7310  18.7721  18.8105  18.8194  18.8747  18.9294
    18.9393  18.9982  19.1698  19.1912  19.2673  19.3519  19.4118  19.4600
    19.5361  19.8153  19.8405  19.8776  19.9113  19.9646  20.0096  20.0549
    20.1051  20.2089  20.2174  20.2372  20.3625  20.5828  20.6748  20.7813
    20.9903  21.0575  21.1050  21.1633  21.1923  21.2958  21.3111  21.3438
    21.3975  21.4384  21.4482  21.5721  21.5828  21.7467  22.2066  22.3083
    22.4607  22.6834  23.3943  23.7370  23.7551  23.9152  24.8072  25.5831
    26.6969  26.8765  27.9656  28.1172  28.5028  29.1098  29.2992  29.7504
    29.8150  29.9720  30.3089  30.4281  31.2137  31.2984  31.6579  31.7948
    32.2433  32.6997  33.7020  34.2951  34.8987  35.5802

     the Fermi energy is    21.5311 ev

!    total energy              =   -7840.66406527 Ry
     estimated scf accuracy    <          6.8E-09 Ry
     smearing contrib. (-TS)   =      -0.00384083 Ry
     internal energy E=F+TS    =   -7840.66022444 Ry

     The total energy is F=E-TS. E is the sum of the following terms:
     one-electron contribution =   -4811.08799781 Ry
     hartree contribution      =    2622.96323827 Ry
     xc contribution           =    -641.55968634 Ry
     ewald contribution        =   -5010.97577857 Ry

     convergence has been achieved in  29 iterations

     Forces acting on atoms (cartesian axes, Ry/au):

     atom    1 type  1   force =    -0.00003940   -0.00559253   -0.00247864
     atom    2 type  1   force =     0.00002312    0.00038748    0.00254614
     atom    3 type  1   force =     0.00003792    0.00555987    0.00246800
     atom    4 type  1   force =    -0.00001308   -0.00043719   -0.00245719
     atom    5 type  1   force =    -0.00000648    0.00017345    0.00386612
     atom    6 type  1   force =    -0.00000148   -0.00006328   -0.00002397
     atom    7 type  1   force =    -0.00000100   -0.00006278    0.00007589
     atom    8 type  1   force =     0.00000806   -0.00019556   -0.00398203
     atom    9 type  2   force =    -0.00001001    0.00005020   -0.00001491
     atom   10 type  2   force =     0.00001032    0.00061245    0.00368360
     atom   11 type  2   force =    -0.00000415    0.00167601   -0.00314084
     atom   12 type  2   force =     0.00000160   -0.00164177    0.00318981
     atom   13 type  2   force =    -0.00000241   -0.00056532   -0.00377666
     atom   14 type  3   force =    -0.00002428   -0.00010335   -0.00034611
     atom   15 type  3   force =     0.00000366    0.00002412    0.00002576
     atom   16 type  3   force =     0.00001762    0.00017820    0.00036501

     Total force =     0.013136     Total SCF correction =     0.000521


     Computing stress (Cartesian axis) and pressure

          total   stress  (Ry/bohr**3)                   (kbar)     P=      -21.15
  -0.00005265   0.00000501  -0.00000041           -7.74        0.74       -0.06
   0.00000501  -0.00018363   0.00000045            0.74      -27.01        0.07
  -0.00000041   0.00000045  -0.00019499           -0.06        0.07      -28.68


     Writing all to output data dir /home/tenant3/nexus-mat/dft/runs/dft-paper-worker-12/jobs/Pt-Pd-Rh-10_Pd8Pt5Rh3/tmp/Pt-Pd-Rh-10_Pd8Pt5Rh3.save/ :
     XML data file, charge density, pseudopotentials, collected wavefunctions

     init_run     :    864.79s CPU    872.77s WALL (       1 calls)
     electrons    :  58352.63s CPU  58690.84s WALL (       1 calls)
     forces       :    591.72s CPU    593.38s WALL (       1 calls)
     stress       :   1935.09s CPU   1941.90s WALL (       1 calls)

     Called by init_run:
     wfcinit      :    856.87s CPU    860.03s WALL (       1 calls)
     potinit      :      0.57s CPU      0.65s WALL (       1 calls)
     hinit0       :      0.79s CPU      3.18s WALL (       1 calls)

     Called by electrons:
     c_bands      :  52715.38s CPU  52967.85s WALL (      29 calls)
     sum_band     :   5477.72s CPU   5523.55s WALL (      29 calls)
     v_of_rho     :     11.58s CPU     12.77s WALL (      30 calls)
     newd         :    151.28s CPU    191.20s WALL (      30 calls)
     mix_rho      :      2.15s CPU      2.16s WALL (      29 calls)

     Called by c_bands:
     init_us_2    :    107.64s CPU    107.70s WALL (    3233 calls)
     cegterg      :  52349.06s CPU  52601.23s WALL (    1537 calls)

     Called by *egterg:
     cdiaghg      :    306.65s CPU    306.67s WALL (    4051 calls)
     h_psi        :  19564.09s CPU  19635.45s WALL (    4104 calls)
     s_psi        :   6638.49s CPU   6638.85s WALL (    4104 calls)
     g_psi        :     20.76s CPU     20.77s WALL (    2514 calls)

     Called by h_psi:
     h_psi:calbec :   8986.40s CPU   8986.87s WALL (    4104 calls)
     vloc_psi     :   3912.72s CPU   3914.87s WALL (    4104 calls)
                                        0.00s GPU  (    4104 calls)
     add_vuspsi   :   6640.08s CPU   6640.43s WALL (    4104 calls)

     General routines
     calbec       :  15703.15s CPU  15703.99s WALL (    6542 calls)
     fft          :      8.14s CPU      8.14s WALL (     413 calls)
     ffts         :      0.28s CPU      0.28s WALL (      59 calls)
     fftw         :   4238.14s CPU   4240.26s WALL ( 1700270 calls)
     interpolate  :      0.92s CPU      0.92s WALL (      30 calls)


     PWSCF        :     17h 9m CPU     17h15m WALL


   This run was terminated on:  21:43: 0  21Jul2026            

=------------------------------------------------------------------------------=
   JOB DONE.
=------------------------------------------------------------------------------=
