
     Program PWSCF v.7.5 starts on 20Jul2026 at 18:53:58 

     This program is part of the open-source Quantum ESPRESSO suite
     for quantum simulation of materials; please cite
         "P. Giannozzi et al., J. Phys.:Condens. Matter 21 395502 (2009);
         "P. Giannozzi et al., J. Phys.:Condens. Matter 29 465901 (2017);
         "P. Giannozzi et al., J. Chem. Phys. 152 154105 (2020);
          URL http://www.quantum-espresso.org", 
     in publications or presentations arising from this work. More details at
     http://www.quantum-espresso.org/quote

     Serial multi-threaded version, running on    1 processor cores
     3674 MiB available memory on the printing compute node when the environment starts

     Reading input from /home/tenant3/nexus-mat/dft/runs/dft-paper-worker-01/jobs/Pt-Pd-Rh-08_PdPt6Rh3/input.in

     Current dimensions of program PWSCF are:
     Max number of different atomic species (ntypx) = 10
     Max number of k-points (npk) =  40000
     Max angular momentum in pseudopotentials (lmaxx) =  4
     file Pt.pbe-spfn-rrkjus_psl.1.0.0.UPF: wavefunction(s)  5P renormalized


     G-vector sticks info
     --------------------
     sticks:   dense  smooth     PW     G-vecs:    dense   smooth      PW
     Sum        1941     973    285               455835   161329   24865

     Using Slab Decomposition



     bravais-lattice index     =            0
     lattice parameter (alat)  =       5.2698  a.u.
     unit-cell volume          =    1034.0713 (a.u.)^3
     number of atoms/cell      =           10
     number of atomic types    =            3
     number of electrons       =       261.00
     number of Kohn-Sham states=          157
     kinetic-energy cutoff     =     110.0000  Ry
     charge density cutoff     =     880.0000  Ry
     scf convergence threshold =      1.0E-08
     mixing beta               =       0.3000
     number of iterations used =            8  plain     mixing
     Exchange-correlation= PBE
                           (   1   4   3   4   0   0   0)

     celldm(1)=   5.269809  celldm(2)=   0.000000  celldm(3)=   0.000000
     celldm(4)=   0.000000  celldm(5)=   0.000000  celldm(6)=   0.000000

     crystal axes: (cart. coord. in units of alat)
               a(1) = (   1.000000   0.000000   0.000008 )  
               a(2) = (   0.000107   1.000343   0.000047 )  
               a(3) = (   0.000000   0.000000   7.063452 )  

     reciprocal axes: (cart. coord. in units 2 pi/alat)
               b(1) = (  1.000000 -0.000107  0.000000 )  
               b(2) = (  0.000000  0.999657  0.000000 )  
               b(3) = ( -0.000001 -0.000007  0.141574 )  


     PseudoPot. # 1 for Pd read from file:
     /home/tenant3/nexus-mat/dft/pseudo/SSSP_1.3.0_PBE_precision/Pd_ONCV_PBE-1.0.oncvpsp.upf
     MD5 check sum: eb77f42b51d86fb18e25f68156a31cf1
     Pseudo is Norm-conserving, Zval = 18.0
     Generated using ONCVPSP code by D. R. Hamann
     Using radial grid of 1410 points,  6 beta functions with: 
                l(1) =   0
                l(2) =   0
                l(3) =   1
                l(4) =   1
                l(5) =   2
                l(6) =   2

     PseudoPot. # 2 for Pt read from file:
     /home/tenant3/nexus-mat/dft/pseudo/SSSP_1.3.0_PBE_precision/Pt.pbe-spfn-rrkjus_psl.1.0.0.UPF
     MD5 check sum: ed006ba81d2b6b3b17616bb61ae12f04
     Pseudo is Ultrasoft + core correction, Zval = 32.0
     Generated using "atomic" code by A. Dal Corso  v.5.1
     Using radial grid of 1277 points,  8 beta functions with: 
                l(1) =   0
                l(2) =   0
                l(3) =   1
                l(4) =   1
                l(5) =   2
                l(6) =   2
                l(7) =   3
                l(8) =   3
     Q(r) pseudized with 0 coefficients 


     PseudoPot. # 3 for Rh read from file:
     /home/tenant3/nexus-mat/dft/pseudo/SSSP_1.3.0_PBE_precision/Rh_ONCV_PBE-1.0.oncvpsp.upf
     MD5 check sum: ba07c69523b14cacd10683cd4c4284c1
     Pseudo is Norm-conserving, Zval = 17.0
     Generated using ONCVPSP code by D. R. Hamann
     Using radial grid of 1442 points,  6 beta functions with: 
                l(1) =   0
                l(2) =   0
                l(3) =   1
                l(4) =   1
                l(5) =   2
                l(6) =   2

     atomic species   valence    mass     pseudopotential
     Pd               18.00   106.42000     Pd( 1.00)
     Pt               32.00   195.08400     Pt( 1.00)
     Rh               17.00   102.90549     Rh( 1.00)

     No symmetry found



   Cartesian axes

     site n.     atom                  positions (alat units)
         1        Pd     tau(   1) = (   0.8363735   0.1192607   0.4929885  )
         2        Pt     tau(   2) = (   0.8363646   0.1194786   6.1629701  )
         3        Pt     tau(   3) = (   0.8361825   0.1188512   1.9386415  )
         4        Pt     tau(   4) = (   0.3362793   0.6190081   2.6628556  )
         5        Pt     tau(   5) = (   0.8363266   0.1192891   4.7753159  )
         6        Pt     tau(   6) = (   0.8362246   0.1190454   3.3885321  )
         7        Pt     tau(   7) = (   0.3363347   0.6192399   1.2145775  )
         8        Rh     tau(   8) = (   0.3364079   0.6195854   6.8550289  )
         9        Rh     tau(   9) = (   0.3364388   0.6196022   5.4688743  )
        10        Rh     tau(  10) = (   0.3363258   0.6193286   4.0818902  )

     number of k points=   100  Marzari-Vanderbilt smearing, width (Ry)=  0.0200

     Number of k-points >= 100: set verbosity='high' to print them.

     Dense  grid:   455835 G-vectors     FFT dimensions: (  50,  50, 360)

     Smooth grid:   161329 G-vectors     FFT dimensions: (  36,  36, 250)

     Estimated max dynamical RAM per process >       9.08 GB

     Initial potential from superposition of free atoms

     starting charge     260.9975, renormalised to     261.0000
     Starting wfcs are  142 randomized atomic wfcs +   15 random wfcs

     total cpu time spent up to now is     2358.7 secs

     Self-consistent Calculation

     iteration #  1     ecut=   110.00 Ry     beta= 0.30
     Davidson diagonalization with overlap
     ethr =  1.00E-02,  avg # of iterations =  3.2

     total cpu time spent up to now is    11346.1 secs

     total energy              =   -7086.46642598 Ry
     estimated scf accuracy    <      29.58305350 Ry

     iteration #  2     ecut=   110.00 Ry     beta= 0.30
     Davidson diagonalization with overlap
     ethr =  1.00E-02,  avg # of iterations =  6.5

     total cpu time spent up to now is    26641.7 secs

     total energy              =   -7027.13420284 Ry
     estimated scf accuracy    <    5429.18508804 Ry

     iteration #  3     ecut=   110.00 Ry     beta= 0.30
     Davidson diagonalization with overlap
     ethr =  1.00E-02,  avg # of iterations =  7.2

     total cpu time spent up to now is    52090.0 secs

     total energy              =   -7098.95934629 Ry
     estimated scf accuracy    <     190.65905120 Ry

     iteration #  4     ecut=   110.00 Ry     beta= 0.30
     Davidson diagonalization with overlap
     ethr =  1.00E-02,  avg # of iterations =  2.4

     total cpu time spent up to now is    63550.6 secs

     total energy              =   -7099.91918455 Ry
     estimated scf accuracy    <     115.64620011 Ry

     iteration #  5     ecut=   110.00 Ry     beta= 0.30
     Davidson diagonalization with overlap
     ethr =  1.00E-02,  avg # of iterations =  1.8

     total cpu time spent up to now is    74548.4 secs

     total energy              =   -7100.91484887 Ry
     estimated scf accuracy    <      49.47239029 Ry

     iteration #  6     ecut=   110.00 Ry     beta= 0.30
     Davidson diagonalization with overlap
     ethr =  1.00E-02,  avg # of iterations =  1.1

     total cpu time spent up to now is    84005.5 secs

     total energy              =   -7101.01863971 Ry
     estimated scf accuracy    <       9.87501346 Ry

     iteration #  7     ecut=   110.00 Ry     beta= 0.30
     Davidson diagonalization with overlap
     ethr =  3.78E-03,  avg # of iterations =  1.1

     total cpu time spent up to now is    91386.2 secs

     total energy              =   -7101.18473038 Ry
     estimated scf accuracy    <      11.74130721 Ry

     iteration #  8     ecut=   110.00 Ry     beta= 0.30
     Davidson diagonalization with overlap
     ethr =  3.78E-03,  avg # of iterations =  1.0

     total cpu time spent up to now is    97370.5 secs

     total energy              =   -7101.16151425 Ry
     estimated scf accuracy    <      10.81759765 Ry

     iteration #  9     ecut=   110.00 Ry     beta= 0.30
     Davidson diagonalization with overlap
     ethr =  3.78E-03,  avg # of iterations =  1.0

     total cpu time spent up to now is   103883.5 secs

     total energy              =   -7101.06380525 Ry
     estimated scf accuracy    <       9.08612845 Ry

     iteration # 10     ecut=   110.00 Ry     beta= 0.30
     Davidson diagonalization with overlap
     ethr =  3.48E-03,  avg # of iterations =  1.0

     total cpu time spent up to now is   109959.9 secs

     total energy              =   -7101.06548126 Ry
     estimated scf accuracy    <       1.52227171 Ry

     iteration # 11     ecut=   110.00 Ry     beta= 0.30
     Davidson diagonalization with overlap
     ethr =  5.83E-04,  avg # of iterations =  1.5

     total cpu time spent up to now is   115916.5 secs

     total energy              =   -7101.07035210 Ry
     estimated scf accuracy    <       3.66983499 Ry

     iteration # 12     ecut=   110.00 Ry     beta= 0.30
     Davidson diagonalization with overlap
     ethr =  5.83E-04,  avg # of iterations =  1.0

     total cpu time spent up to now is   121492.4 secs

     total energy              =   -7101.08439163 Ry
     estimated scf accuracy    <       0.13905741 Ry

     iteration # 13     ecut=   110.00 Ry     beta= 0.30
     Davidson diagonalization with overlap
     ethr =  5.33E-05,  avg # of iterations =  3.9

     total cpu time spent up to now is   127869.9 secs

     total energy              =   -7101.08627692 Ry
     estimated scf accuracy    <       0.05883223 Ry

     iteration # 14     ecut=   110.00 Ry     beta= 0.30
     Davidson diagonalization with overlap
     ethr =  2.25E-05,  avg # of iterations =  3.8

     total cpu time spent up to now is   134109.7 secs

     total energy              =   -7101.08366534 Ry
     estimated scf accuracy    <       0.13982213 Ry

     iteration # 15     ecut=   110.00 Ry     beta= 0.30
     Davidson diagonalization with overlap
     ethr =  2.25E-05,  avg # of iterations =  2.2

     total cpu time spent up to now is   140496.5 secs

     total energy              =   -7101.08371405 Ry
     estimated scf accuracy    <       0.18030393 Ry

     iteration # 16     ecut=   110.00 Ry     beta= 0.30
     Davidson diagonalization with overlap
     ethr =  2.25E-05,  avg # of iterations =  1.3

     total cpu time spent up to now is   145927.1 secs

     total energy              =   -7101.08571556 Ry
     estimated scf accuracy    <       0.01918311 Ry

     iteration # 17     ecut=   110.00 Ry     beta= 0.30
     Davidson diagonalization with overlap
     ethr =  7.35E-06,  avg # of iterations =  3.2

     total cpu time spent up to now is   151161.9 secs

     total energy              =   -7101.08594753 Ry
     estimated scf accuracy    <       0.00080399 Ry

     iteration # 18     ecut=   110.00 Ry     beta= 0.30
     Davidson diagonalization with overlap
     ethr =  3.08E-07,  avg # of iterations =  3.9

     total cpu time spent up to now is   156519.9 secs

     total energy              =   -7101.08596148 Ry
     estimated scf accuracy    <       0.00064003 Ry

     iteration # 19     ecut=   110.00 Ry     beta= 0.30
     Davidson diagonalization with overlap
     ethr =  2.45E-07,  avg # of iterations =  1.1

     total cpu time spent up to now is   161221.9 secs

     total energy              =   -7101.08598004 Ry
     estimated scf accuracy    <       0.00020786 Ry

     iteration # 20     ecut=   110.00 Ry     beta= 0.30
     Davidson diagonalization with overlap
     ethr =  7.96E-08,  avg # of iterations =  1.1

     total cpu time spent up to now is   165953.5 secs

     total energy              =   -7101.08598496 Ry
     estimated scf accuracy    <       0.00007708 Ry

     iteration # 21     ecut=   110.00 Ry     beta= 0.30
     Davidson diagonalization with overlap
     ethr =  2.95E-08,  avg # of iterations =  1.1

     total cpu time spent up to now is   170655.7 secs

     total energy              =   -7101.08598773 Ry
     estimated scf accuracy    <       0.00004836 Ry

     iteration # 22     ecut=   110.00 Ry     beta= 0.30
     Davidson diagonalization with overlap
     ethr =  1.85E-08,  avg # of iterations =  1.0

     total cpu time spent up to now is   175304.7 secs

     total energy              =   -7101.08598346 Ry
     estimated scf accuracy    <       0.00113741 Ry

     iteration # 23     ecut=   110.00 Ry     beta= 0.30
     Davidson diagonalization with overlap
     ethr =  1.85E-08,  avg # of iterations =  1.0

     total cpu time spent up to now is   179963.1 secs

     total energy              =   -7101.08598930 Ry
     estimated scf accuracy    <       0.00000884 Ry

     iteration # 24     ecut=   110.00 Ry     beta= 0.30
     Davidson diagonalization with overlap
     ethr =  3.39E-09,  avg # of iterations =  1.0

     total cpu time spent up to now is   184616.2 secs

     total energy              =   -7101.08598903 Ry
     estimated scf accuracy    <       0.00000421 Ry

     iteration # 25     ecut=   110.00 Ry     beta= 0.30
     Davidson diagonalization with overlap
     ethr =  1.61E-09,  avg # of iterations =  1.0

     total cpu time spent up to now is   189307.7 secs

     total energy              =   -7101.08598785 Ry
     estimated scf accuracy    <       0.00020921 Ry

     iteration # 26     ecut=   110.00 Ry     beta= 0.30
     Davidson diagonalization with overlap
     ethr =  1.61E-09,  avg # of iterations =  1.0

     total cpu time spent up to now is   193974.8 secs

     total energy              =   -7101.08598935 Ry
     estimated scf accuracy    <       0.00000418 Ry

     iteration # 27     ecut=   110.00 Ry     beta= 0.30
     Davidson diagonalization with overlap
     ethr =  1.60E-09,  avg # of iterations =  1.0

     total cpu time spent up to now is   198037.6 secs

     total energy              =   -7101.08598935 Ry
     estimated scf accuracy    <       0.00000410 Ry

     iteration # 28     ecut=   110.00 Ry     beta= 0.30
     Davidson diagonalization with overlap
     ethr =  1.57E-09,  avg # of iterations =  1.0

     total cpu time spent up to now is   201751.5 secs

     total energy              =   -7101.08598938 Ry
     estimated scf accuracy    <       0.00000277 Ry

     iteration # 29     ecut=   110.00 Ry     beta= 0.30
     Davidson diagonalization with overlap
     ethr =  1.06E-09,  avg # of iterations =  1.0

     total cpu time spent up to now is   205463.6 secs

     total energy              =   -7101.08598940 Ry
     estimated scf accuracy    <       0.00000024 Ry

     iteration # 30     ecut=   110.00 Ry     beta= 0.30
     Davidson diagonalization with overlap
     ethr =  9.18E-11,  avg # of iterations =  1.0

     total cpu time spent up to now is   209176.5 secs

     total energy              =   -7101.08598940 Ry
     estimated scf accuracy    <       0.00000031 Ry

     iteration # 31     ecut=   110.00 Ry     beta= 0.30
     Davidson diagonalization with overlap
     ethr =  9.18E-11,  avg # of iterations =  1.0

     total cpu time spent up to now is   212892.0 secs

     total energy              =   -7101.08598940 Ry
     estimated scf accuracy    <       0.00000052 Ry

     iteration # 32     ecut=   110.00 Ry     beta= 0.30
     Davidson diagonalization with overlap
     ethr =  9.18E-11,  avg # of iterations =  1.0

     total cpu time spent up to now is   216608.2 secs

     total energy              =   -7101.08598940 Ry
     estimated scf accuracy    <       0.00000107 Ry

     iteration # 33     ecut=   110.00 Ry     beta= 0.30
     Davidson diagonalization with overlap
     ethr =  9.18E-11,  avg # of iterations =  1.0

     total cpu time spent up to now is   220321.5 secs

     total energy              =   -7101.08598941 Ry
     estimated scf accuracy    <       0.00000025 Ry

     iteration # 34     ecut=   110.00 Ry     beta= 0.30
     Davidson diagonalization with overlap
     ethr =  9.18E-11,  avg # of iterations =  1.0

     total cpu time spent up to now is   224036.1 secs

     total energy              =   -7101.08598941 Ry
     estimated scf accuracy    <       0.00000004 Ry

     iteration # 35     ecut=   110.00 Ry     beta= 0.30
     Davidson diagonalization with overlap
     ethr =  1.51E-11,  avg # of iterations =  1.0

     total cpu time spent up to now is   227754.6 secs

     total energy              =   -7101.08598941 Ry
     estimated scf accuracy    <       0.00000017 Ry

     iteration # 36     ecut=   110.00 Ry     beta= 0.30
     Davidson diagonalization with overlap
     ethr =  1.51E-11,  avg # of iterations =  1.0

     total cpu time spent up to now is   231470.3 secs

     total energy              =   -7101.08598941 Ry
     estimated scf accuracy    <       0.00000005 Ry

     iteration # 37     ecut=   110.00 Ry     beta= 0.30
     Davidson diagonalization with overlap
     ethr =  1.51E-11,  avg # of iterations =  1.0

     total cpu time spent up to now is   235187.6 secs

     total energy              =   -7101.08598941 Ry
     estimated scf accuracy    <       0.00000001 Ry

     iteration # 38     ecut=   110.00 Ry     beta= 0.30
     Davidson diagonalization with overlap
     ethr =  4.71E-12,  avg # of iterations =  1.0

     total cpu time spent up to now is   238921.7 secs

     total energy              =   -7101.08598941 Ry
     estimated scf accuracy    <       0.00000003 Ry

     iteration # 39     ecut=   110.00 Ry     beta= 0.30
     Davidson diagonalization with overlap
     ethr =  4.71E-12,  avg # of iterations =  1.0

     total cpu time spent up to now is   242423.6 secs

     total energy              =   -7101.08598941 Ry
     estimated scf accuracy    <       0.00000001 Ry

     iteration # 40     ecut=   110.00 Ry     beta= 0.30
     Davidson diagonalization with overlap
     ethr =  4.32E-12,  avg # of iterations =  1.0

     total cpu time spent up to now is   245235.4 secs

     End of self-consistent calculation

     Number of k-points >= 100: set verbosity='high' to print the bands.

     the Fermi energy is    23.5695 ev

!    total energy              =   -7101.08598941 Ry
     estimated scf accuracy    <          1.6E-09 Ry
     smearing contrib. (-TS)   =      -0.00520383 Ry
     internal energy E=F+TS    =   -7101.08078559 Ry

     The total energy is F=E-TS. E is the sum of the following terms:
     one-electron contribution =   -5623.76962775 Ry
     hartree contribution      =    2978.94527644 Ry
     xc contribution           =    -543.43422681 Ry
     ewald contribution        =   -3912.82220747 Ry

     convergence has been achieved in  40 iterations

     Forces acting on atoms (cartesian axes, Ry/au):

     atom    1 type  1   force =    -0.00002204    0.00000143   -0.00549752
     atom    2 type  2   force =     0.00000085   -0.00004024    0.00478770
     atom    3 type  2   force =     0.00002946    0.00003456   -0.00078557
     atom    4 type  2   force =    -0.00001362    0.00004331    0.00021446
     atom    5 type  2   force =     0.00000194    0.00000171   -0.00202375
     atom    6 type  2   force =     0.00001769   -0.00000518    0.00384682
     atom    7 type  2   force =    -0.00000096   -0.00000491   -0.00171260
     atom    8 type  3   force =     0.00000775   -0.00001574    0.00111642
     atom    9 type  3   force =    -0.00002300   -0.00002979    0.00184916
     atom   10 type  3   force =     0.00000194    0.00001488   -0.00179511

     Total force =     0.009140     Total SCF correction =     0.000475


     Computing stress (Cartesian axis) and pressure

          total   stress  (Ry/bohr**3)                   (kbar)     P=      -32.81
  -0.00022332  -0.00000049  -0.00000013          -32.85       -0.07       -0.02
  -0.00000049  -0.00022779  -0.00000051           -0.07      -33.51       -0.08
  -0.00000013  -0.00000051  -0.00021802           -0.02       -0.08      -32.07


     Writing all to output data dir /home/tenant3/nexus-mat/dft/runs/dft-paper-worker-01/jobs/Pt-Pd-Rh-08_PdPt6Rh3/tmp/Pt-Pd-Rh-08_PdPt6Rh3.save/ :
     XML data file, charge density, pseudopotentials, collected wavefunctions

     init_run     :   1555.92s CPU   2358.48s WALL (       1 calls)
     electrons    :  90679.60s CPU 242876.75s WALL (       1 calls)
     forces       :    549.95s CPU    719.74s WALL (       1 calls)
     stress       :   1792.81s CPU   2008.81s WALL (       1 calls)

     Called by init_run:
     wfcinit      :   1542.09s CPU   2336.66s WALL (       1 calls)
     potinit      :      0.79s CPU      1.26s WALL (       1 calls)
     hinit0       :      0.91s CPU      1.33s WALL (       1 calls)

     Called by electrons:
     c_bands      :  82683.39s CPU 221055.53s WALL (      40 calls)
     sum_band     :   7784.55s CPU  21125.66s WALL (      40 calls)
     v_of_rho     :     13.82s CPU     39.86s WALL (      41 calls)
     newd         :    206.34s CPU    664.84s WALL (      41 calls)
     mix_rho      :      2.56s CPU      6.87s WALL (      40 calls)

     Called by c_bands:
     init_us_2    :    171.75s CPU    451.79s WALL (    8300 calls)
     cegterg      :  81858.84s CPU 218854.59s WALL (    4000 calls)

     Called by *egterg:
     cdiaghg      :    670.51s CPU   2750.55s WALL (   10933 calls)
     h_psi        :  31750.96s CPU  83013.16s WALL (   11033 calls)
     s_psi        :  10428.29s CPU  27113.65s WALL (   11033 calls)
     g_psi        :     32.65s CPU     86.61s WALL (    6933 calls)

     Called by h_psi:
     h_psi:calbec :  12581.08s CPU  32722.19s WALL (   11033 calls)
     vloc_psi     :   8697.73s CPU  22824.92s WALL (   11033 calls)
                                        0.00s GPU  (   11033 calls)
     add_vuspsi   :  10427.41s CPU  27081.29s WALL (   11033 calls)

     General routines
     calbec       :  20388.74s CPU  50255.83s WALL (   16733 calls)
     fft          :     10.25s CPU     26.59s WALL (     556 calls)
     ffts         :      0.48s CPU      1.29s WALL (      81 calls)
     fftw         :   9345.16s CPU  24288.25s WALL ( 3298366 calls)
     interpolate  :      1.14s CPU      3.03s WALL (      41 calls)


     PWSCF        :   1d 2h16m CPU   2d20h52m WALL


   This run was terminated on:  15:46:45  23Jul2026            

=------------------------------------------------------------------------------=
   JOB DONE.
=------------------------------------------------------------------------------=
