
     Program PWSCF v.7.5 starts on 21Jul2026 at  2:43:57 

     This program is part of the open-source Quantum ESPRESSO suite
     for quantum simulation of materials; please cite
         "P. Giannozzi et al., J. Phys.:Condens. Matter 21 395502 (2009);
         "P. Giannozzi et al., J. Phys.:Condens. Matter 29 465901 (2017);
         "P. Giannozzi et al., J. Chem. Phys. 152 154105 (2020);
          URL http://www.quantum-espresso.org", 
     in publications or presentations arising from this work. More details at
     http://www.quantum-espresso.org/quote

     Serial multi-threaded version, running on    1 processor cores
     4092 MiB available memory on the printing compute node when the environment starts

     Reading input from /home/tenant3/nexus-mat/dft/runs/dft-paper-worker-10/jobs/Pt-Pd-Rh-05_Pd2Pt4Rh/input.in

     Current dimensions of program PWSCF are:
     Max number of different atomic species (ntypx) = 10
     Max number of k-points (npk) =  40000
     Max angular momentum in pseudopotentials (lmaxx) =  4
     file Pt.pbe-spfn-rrkjus_psl.1.0.0.UPF: wavefunction(s)  5P renormalized


     G-vector sticks info
     --------------------
     sticks:   dense  smooth     PW     G-vecs:    dense   smooth      PW
     Sum        4329    2169    617               318389   112643   16937

     Using Slab Decomposition



     bravais-lattice index     =            0
     lattice parameter (alat)  =       7.4118  a.u.
     unit-cell volume          =     722.3272 (a.u.)^3
     number of atoms/cell      =            7
     number of atomic types    =            3
     number of electrons       =       181.00
     number of Kohn-Sham states=          109
     kinetic-energy cutoff     =     110.0000  Ry
     charge density cutoff     =     880.0000  Ry
     scf convergence threshold =      1.0E-08
     mixing beta               =       0.3000
     number of iterations used =            8  plain     mixing
     Exchange-correlation= PBE
                           (   1   4   3   4   0   0   0)

     celldm(1)=   7.411753  celldm(2)=   0.000000  celldm(3)=   0.000000
     celldm(4)=   0.000000  celldm(5)=   0.000000  celldm(6)=   0.000000

     crystal axes: (cart. coord. in units of alat)
               a(1) = (   1.000000   0.000000   0.000075 )  
               a(2) = (  -0.500740   1.115705  -0.161848 )  
               a(3) = (   0.000000   0.000000   1.590090 )  

     reciprocal axes: (cart. coord. in units 2 pi/alat)
               b(1) = (  1.000000  0.448810 -0.000000 )  
               b(2) = (  0.000000  0.896294  0.000000 )  
               b(3) = ( -0.000047  0.091209  0.628895 )  


     PseudoPot. # 1 for Pd read from file:
     /home/tenant3/nexus-mat/dft/pseudo/SSSP_1.3.0_PBE_precision/Pd_ONCV_PBE-1.0.oncvpsp.upf
     MD5 check sum: eb77f42b51d86fb18e25f68156a31cf1
     Pseudo is Norm-conserving, Zval = 18.0
     Generated using ONCVPSP code by D. R. Hamann
     Using radial grid of 1410 points,  6 beta functions with: 
                l(1) =   0
                l(2) =   0
                l(3) =   1
                l(4) =   1
                l(5) =   2
                l(6) =   2

     PseudoPot. # 2 for Pt read from file:
     /home/tenant3/nexus-mat/dft/pseudo/SSSP_1.3.0_PBE_precision/Pt.pbe-spfn-rrkjus_psl.1.0.0.UPF
     MD5 check sum: ed006ba81d2b6b3b17616bb61ae12f04
     Pseudo is Ultrasoft + core correction, Zval = 32.0
     Generated using "atomic" code by A. Dal Corso  v.5.1
     Using radial grid of 1277 points,  8 beta functions with: 
                l(1) =   0
                l(2) =   0
                l(3) =   1
                l(4) =   1
                l(5) =   2
                l(6) =   2
                l(7) =   3
                l(8) =   3
     Q(r) pseudized with 0 coefficients 


     PseudoPot. # 3 for Rh read from file:
     /home/tenant3/nexus-mat/dft/pseudo/SSSP_1.3.0_PBE_precision/Rh_ONCV_PBE-1.0.oncvpsp.upf
     MD5 check sum: ba07c69523b14cacd10683cd4c4284c1
     Pseudo is Norm-conserving, Zval = 17.0
     Generated using ONCVPSP code by D. R. Hamann
     Using radial grid of 1442 points,  6 beta functions with: 
                l(1) =   0
                l(2) =   0
                l(3) =   1
                l(4) =   1
                l(5) =   2
                l(6) =   2

     atomic species   valence    mass     pseudopotential
     Pd               18.00   106.42000     Pd( 1.00)
     Pt               32.00   195.08400     Pt( 1.00)
     Rh               17.00   102.90549     Rh( 1.00)

     No symmetry found



   Cartesian axes

     site n.     atom                  positions (alat units)
         1        Pd     tau(   1) = (   0.2956510   0.9830647   0.6497074  )
         2        Pd     tau(   2) = (  -0.2041715   0.8260344   1.1252082  )
         3        Pt     tau(   3) = (  -0.2040083   0.5043785   0.4877071  )
         4        Pt     tau(   4) = (   0.2961353   0.3441375   0.9703672  )
         5        Pt     tau(   5) = (   0.2963421   0.0298616   0.3267716  )
         6        Pt     tau(   6) = (   0.2958854   0.6652104   0.0088154  )
         7        Rh     tau(   7) = (   0.7961712   0.1906743   1.4448261  )

     number of k points=   120  Marzari-Vanderbilt smearing, width (Ry)=  0.0200

     Number of k-points >= 100: set verbosity='high' to print them.

     Dense  grid:   318389 G-vectors     FFT dimensions: (  72,  90, 120)

     Smooth grid:   112643 G-vectors     FFT dimensions: (  50,  64,  80)

     Estimated max dynamical RAM per process >       5.78 GB

     Initial potential from superposition of free atoms

     starting charge     180.9983, renormalised to     181.0000
     Starting wfcs are   98 randomized atomic wfcs +   11 random wfcs

     total cpu time spent up to now is      236.5 secs

     Self-consistent Calculation

     iteration #  1     ecut=   110.00 Ry     beta= 0.30
     Davidson diagonalization with overlap
     ethr =  1.00E-02,  avg # of iterations =  3.0

     total cpu time spent up to now is     1104.8 secs

     total energy              =   -4854.02503443 Ry
     estimated scf accuracy    <       1.83080300 Ry

     iteration #  2     ecut=   110.00 Ry     beta= 0.30
     Davidson diagonalization with overlap
     ethr =  1.01E-03,  avg # of iterations =  3.3

     total cpu time spent up to now is     2907.4 secs

     total energy              =   -4854.07768960 Ry
     estimated scf accuracy    <       9.64612042 Ry

     iteration #  3     ecut=   110.00 Ry     beta= 0.30
     Davidson diagonalization with overlap
     ethr =  1.01E-03,  avg # of iterations =  2.0

     total cpu time spent up to now is     3680.6 secs

     total energy              =   -4854.59927435 Ry
     estimated scf accuracy    <       2.60893688 Ry

     iteration #  4     ecut=   110.00 Ry     beta= 0.30
     Davidson diagonalization with overlap
     ethr =  1.01E-03,  avg # of iterations =  1.0

     total cpu time spent up to now is     4308.7 secs

     total energy              =   -4854.74163736 Ry
     estimated scf accuracy    <       0.03227231 Ry

     iteration #  5     ecut=   110.00 Ry     beta= 0.30
     Davidson diagonalization with overlap
     ethr =  1.78E-05,  avg # of iterations =  5.5

     total cpu time spent up to now is     5071.9 secs

     total energy              =   -4854.74314913 Ry
     estimated scf accuracy    <       0.01010131 Ry

     iteration #  6     ecut=   110.00 Ry     beta= 0.30
     Davidson diagonalization with overlap
     ethr =  5.58E-06,  avg # of iterations =  3.1

     total cpu time spent up to now is     5823.0 secs

     total energy              =   -4854.74322359 Ry
     estimated scf accuracy    <       0.00383574 Ry

     iteration #  7     ecut=   110.00 Ry     beta= 0.30
     Davidson diagonalization with overlap
     ethr =  2.12E-06,  avg # of iterations =  3.0

     total cpu time spent up to now is     6566.9 secs

     total energy              =   -4854.74305746 Ry
     estimated scf accuracy    <       0.00840405 Ry

     iteration #  8     ecut=   110.00 Ry     beta= 0.30
     Davidson diagonalization with overlap
     ethr =  2.12E-06,  avg # of iterations =  1.4

     total cpu time spent up to now is     7234.1 secs

     total energy              =   -4854.74356599 Ry
     estimated scf accuracy    <       0.00057907 Ry

     iteration #  9     ecut=   110.00 Ry     beta= 0.30
     Davidson diagonalization with overlap
     ethr =  3.20E-07,  avg # of iterations =  1.0

     total cpu time spent up to now is     7866.9 secs

     total energy              =   -4854.74360945 Ry
     estimated scf accuracy    <       0.00020452 Ry

     iteration # 10     ecut=   110.00 Ry     beta= 0.30
     Davidson diagonalization with overlap
     ethr =  1.13E-07,  avg # of iterations =  1.0

     total cpu time spent up to now is     8498.5 secs

     total energy              =   -4854.74362089 Ry
     estimated scf accuracy    <       0.00004047 Ry

     iteration # 11     ecut=   110.00 Ry     beta= 0.30
     Davidson diagonalization with overlap
     ethr =  2.24E-08,  avg # of iterations =  1.0

     total cpu time spent up to now is     9117.0 secs

     total energy              =   -4854.74362317 Ry
     estimated scf accuracy    <       0.00000840 Ry

     iteration # 12     ecut=   110.00 Ry     beta= 0.30
     Davidson diagonalization with overlap
     ethr =  4.64E-09,  avg # of iterations =  1.0

     total cpu time spent up to now is     9710.9 secs

     total energy              =   -4854.74362385 Ry
     estimated scf accuracy    <       0.00000475 Ry

     iteration # 13     ecut=   110.00 Ry     beta= 0.30
     Davidson diagonalization with overlap
     ethr =  2.63E-09,  avg # of iterations =  1.0

     total cpu time spent up to now is    10301.9 secs

     total energy              =   -4854.74362434 Ry
     estimated scf accuracy    <       0.00000133 Ry

     iteration # 14     ecut=   110.00 Ry     beta= 0.30
     Davidson diagonalization with overlap
     ethr =  7.36E-10,  avg # of iterations =  1.0

     total cpu time spent up to now is    10894.8 secs

     total energy              =   -4854.74362443 Ry
     estimated scf accuracy    <       0.00000005 Ry

     iteration # 15     ecut=   110.00 Ry     beta= 0.30
     Davidson diagonalization with overlap
     ethr =  2.82E-11,  avg # of iterations =  1.6

     total cpu time spent up to now is    11551.3 secs

     total energy              =   -4854.74362443 Ry
     estimated scf accuracy    <       0.00000003 Ry

     iteration # 16     ecut=   110.00 Ry     beta= 0.30
     Davidson diagonalization with overlap
     ethr =  1.54E-11,  avg # of iterations =  1.1

     total cpu time spent up to now is    12149.1 secs

     total energy              =   -4854.74362444 Ry
     estimated scf accuracy    <       0.00000002 Ry

     iteration # 17     ecut=   110.00 Ry     beta= 0.30
     Davidson diagonalization with overlap
     ethr =  8.87E-12,  avg # of iterations =  1.0

     total cpu time spent up to now is    12741.5 secs

     End of self-consistent calculation

     Number of k-points >= 100: set verbosity='high' to print the bands.

     the Fermi energy is    23.2604 ev

!    total energy              =   -4854.74362444 Ry
     estimated scf accuracy    <          4.9E-10 Ry
     smearing contrib. (-TS)   =      -0.00374330 Ry
     internal energy E=F+TS    =   -4854.73988114 Ry

     The total energy is F=E-TS. E is the sum of the following terms:
     one-electron contribution =   -3252.79787340 Ry
     hartree contribution      =    1742.08492669 Ry
     xc contribution           =    -373.49430823 Ry
     ewald contribution        =   -2970.53262620 Ry

     convergence has been achieved in  17 iterations

     Forces acting on atoms (cartesian axes, Ry/au):

     atom    1 type  1   force =     0.00016399    0.00195053   -0.00147254
     atom    2 type  1   force =    -0.00002363   -0.00105018    0.00303053
     atom    3 type  2   force =    -0.00015930   -0.00292100    0.00071584
     atom    4 type  2   force =    -0.00013714    0.00010517    0.00189701
     atom    5 type  2   force =     0.00004553    0.00025953   -0.00264136
     atom    6 type  2   force =    -0.00001728    0.00037880   -0.00135395
     atom    7 type  3   force =     0.00012783    0.00127715   -0.00017553

     Total force =     0.006300     Total SCF correction =     0.000161


     Computing stress (Cartesian axis) and pressure

          total   stress  (Ry/bohr**3)                   (kbar)     P=       -2.78
   0.00001705   0.00000079  -0.00000396            2.51        0.12       -0.58
   0.00000079  -0.00004778   0.00000581            0.12       -7.03        0.85
  -0.00000396   0.00000581  -0.00002597           -0.58        0.85       -3.82


     Writing all to output data dir /home/tenant3/nexus-mat/dft/runs/dft-paper-worker-10/jobs/Pt-Pd-Rh-05_Pd2Pt4Rh/tmp/Pt-Pd-Rh-05_Pd2Pt4Rh.save/ :
     XML data file, charge density, pseudopotentials, collected wavefunctions

     init_run     :    230.29s CPU    235.88s WALL (       1 calls)
     electrons    :  11429.51s CPU  12505.02s WALL (       1 calls)
     forces       :    178.50s CPU    179.11s WALL (       1 calls)
     stress       :    590.56s CPU    593.54s WALL (       1 calls)

     Called by init_run:
     wfcinit      :    226.84s CPU    228.46s WALL (       1 calls)
     potinit      :      0.30s CPU      0.33s WALL (       1 calls)
     hinit0       :      0.78s CPU      3.54s WALL (       1 calls)

     Called by electrons:
     c_bands      :  10221.38s CPU  11276.85s WALL (      17 calls)
     sum_band     :   1167.58s CPU   1178.39s WALL (      17 calls)
     v_of_rho     :      3.52s CPU      3.86s WALL (      18 calls)
     newd         :     38.54s CPU     47.82s WALL (      18 calls)
     mix_rho      :      0.51s CPU      0.53s WALL (      17 calls)

     Called by c_bands:
     init_us_2    :     32.19s CPU     32.29s WALL (    4440 calls)
     cegterg      :  10101.04s CPU  11155.27s WALL (    2040 calls)

     Called by *egterg:
     cdiaghg      :     68.55s CPU     68.61s WALL (    5897 calls)
     h_psi        :   4191.04s CPU   5180.42s WALL (    6017 calls)
     s_psi        :   1167.45s CPU   1167.69s WALL (    6017 calls)
     g_psi        :      6.59s CPU      7.40s WALL (    3857 calls)

     Called by h_psi:
     h_psi:calbec :   1620.52s CPU   1622.36s WALL (    6017 calls)
     vloc_psi     :   1387.09s CPU   2333.06s WALL (    6017 calls)
                                        0.00s GPU  (    6017 calls)
     add_vuspsi   :   1173.91s CPU   1185.10s WALL (    6017 calls)

     General routines
     calbec       :   3106.32s CPU   3107.33s WALL (   10097 calls)
     fft          :      2.32s CPU      2.38s WALL (     257 calls)
     ffts         :      0.09s CPU      0.09s WALL (      35 calls)
     fftw         :   1498.79s CPU   2337.98s WALL ( 1169030 calls)
     interpolate  :      0.26s CPU      0.26s WALL (      18 calls)


     PWSCF        :      3h27m CPU      3h45m WALL


   This run was terminated on:   6:29:12  21Jul2026            

=------------------------------------------------------------------------------=
   JOB DONE.
=------------------------------------------------------------------------------=
