
     Program PWSCF v.7.5 starts on 21Jul2026 at  1: 1:33 

     This program is part of the open-source Quantum ESPRESSO suite
     for quantum simulation of materials; please cite
         "P. Giannozzi et al., J. Phys.:Condens. Matter 21 395502 (2009);
         "P. Giannozzi et al., J. Phys.:Condens. Matter 29 465901 (2017);
         "P. Giannozzi et al., J. Chem. Phys. 152 154105 (2020);
          URL http://www.quantum-espresso.org", 
     in publications or presentations arising from this work. More details at
     http://www.quantum-espresso.org/quote

     Serial multi-threaded version, running on    1 processor cores
     4208 MiB available memory on the printing compute node when the environment starts

     Reading input from /home/tenant3/nexus-mat/dft/runs/dft-paper-worker-09/jobs/Pt-Pd-Rh-16_Pd7Pt11Rh2/input.in

     Current dimensions of program PWSCF are:
     Max number of different atomic species (ntypx) = 10
     Max number of k-points (npk) =  40000
     Max angular momentum in pseudopotentials (lmaxx) =  4
     file Pt.pbe-spfn-rrkjus_psl.1.0.0.UPF: wavefunction(s)  5P renormalized


     G-vector sticks info
     --------------------
     sticks:   dense  smooth     PW     G-vecs:    dense   smooth      PW
     Sum       11063    5525   1495               923193   326415   45611

     Using Slab Decomposition



     bravais-lattice index     =            0
     lattice parameter (alat)  =      10.7098  a.u.
     unit-cell volume          =    2094.3214 (a.u.)^3
     number of atoms/cell      =           20
     number of atomic types    =            3
     number of electrons       =       512.00
     number of Kohn-Sham states=          307
     kinetic-energy cutoff     =     110.0000  Ry
     charge density cutoff     =     880.0000  Ry
     scf convergence threshold =      1.0E-08
     mixing beta               =       0.3000
     number of iterations used =            8  plain     mixing
     Exchange-correlation= PBE
                           (   1   4   3   4   0   0   0)

     celldm(1)=  10.709812  celldm(2)=   0.000000  celldm(3)=   0.000000
     celldm(4)=   0.000000  celldm(5)=   0.000000  celldm(6)=   0.000000

     crystal axes: (cart. coord. in units of alat)
               a(1) = (   0.981711   0.000000  -0.190378 )  
               a(2) = (  -0.069615   1.327597  -0.362297 )  
               a(3) = (   0.000000   0.000000   1.308121 )  

     reciprocal axes: (cart. coord. in units 2 pi/alat)
               b(1) = (  1.018630  0.053414 -0.000000 )  
               b(2) = ( -0.000000  0.753241  0.000000 )  
               b(3) = (  0.148247  0.216391  0.764455 )  


     PseudoPot. # 1 for Pd read from file:
     /home/tenant3/nexus-mat/dft/pseudo/SSSP_1.3.0_PBE_precision/Pd_ONCV_PBE-1.0.oncvpsp.upf
     MD5 check sum: eb77f42b51d86fb18e25f68156a31cf1
     Pseudo is Norm-conserving, Zval = 18.0
     Generated using ONCVPSP code by D. R. Hamann
     Using radial grid of 1410 points,  6 beta functions with: 
                l(1) =   0
                l(2) =   0
                l(3) =   1
                l(4) =   1
                l(5) =   2
                l(6) =   2

     PseudoPot. # 2 for Pt read from file:
     /home/tenant3/nexus-mat/dft/pseudo/SSSP_1.3.0_PBE_precision/Pt.pbe-spfn-rrkjus_psl.1.0.0.UPF
     MD5 check sum: ed006ba81d2b6b3b17616bb61ae12f04
     Pseudo is Ultrasoft + core correction, Zval = 32.0
     Generated using "atomic" code by A. Dal Corso  v.5.1
     Using radial grid of 1277 points,  8 beta functions with: 
                l(1) =   0
                l(2) =   0
                l(3) =   1
                l(4) =   1
                l(5) =   2
                l(6) =   2
                l(7) =   3
                l(8) =   3
     Q(r) pseudized with 0 coefficients 


     PseudoPot. # 3 for Rh read from file:
     /home/tenant3/nexus-mat/dft/pseudo/SSSP_1.3.0_PBE_precision/Rh_ONCV_PBE-1.0.oncvpsp.upf
     MD5 check sum: ba07c69523b14cacd10683cd4c4284c1
     Pseudo is Norm-conserving, Zval = 17.0
     Generated using ONCVPSP code by D. R. Hamann
     Using radial grid of 1442 points,  6 beta functions with: 
                l(1) =   0
                l(2) =   0
                l(3) =   1
                l(4) =   1
                l(5) =   2
                l(6) =   2

     atomic species   valence    mass     pseudopotential
     Pd               18.00   106.42000     Pd( 1.00)
     Pt               32.00   195.08400     Pt( 1.00)
     Rh               17.00   102.90549     Rh( 1.00)

     No symmetry found



   Cartesian axes

     site n.     atom                  positions (alat units)
         1        Pd     tau(   1) = (  -0.0152917   0.5930832   0.5571331  )
         2        Pd     tau(   2) = (   0.6928504   0.1925817   0.2661844  )
         3        Pd     tau(   3) = (   0.7828576   0.3246078   0.7332642  )
         4        Pd     tau(   4) = (   0.2583185   0.9911689   0.6518844  )
         5        Pd     tau(   5) = (   0.3504041   1.1215717  -0.1921123  )
         6        Pd     tau(   6) = (   0.7490852   0.9917184   0.5568578  )
         7        Pd     tau(   7) = (   0.6022353   0.0634175   1.1080783  )
         8        Pt     tau(   8) = (   0.4380750   1.2552620   0.2783495  )
         9        Pt     tau(   9) = (   0.4718444   0.5922221   0.4599320  )
        10        Pt     tau(  10) = (   0.2018925   0.1934851   0.3642918  )
        11        Pt     tau(  11) = (   0.1117351   0.0646050   1.2027770  )
        12        Pt     tau(  12) = (   0.0771393   0.7217101   1.0218787  )
        13        Pt     tau(  13) = (   0.5660347   0.7203334   0.9242692  )
        14        Pt     tau(  14) = (  -0.0479229   1.2555571   0.3741491  )
        15        Pt     tau(  15) = (   0.8775015   0.4630445  -0.1006357  )
        16        Pt     tau(  16) = (   0.6581881   0.8587280   0.0882041  )
        17        Pt     tau(  17) = (   0.8433815   1.1203356  -0.2848486  )
        18        Pt     tau(  18) = (   0.3842429   0.4615951  -0.0076786  )
        19        Rh     tau(  19) = (   0.2928908   0.3250281   0.8299689  )
        20        Rh     tau(  20) = (   0.1678070   0.8585919   0.1828051  )

     number of k points=    40  Marzari-Vanderbilt smearing, width (Ry)=  0.0200
                       cart. coord. in units 2pi/alat
        k(    1) = (   0.0185308   0.1212040   0.0955569), wk =   0.0500000
        k(    2) = (   0.0555925   0.1753018   0.2866708), wk =   0.0500000
        k(    3) = (  -0.0555925   0.0130083  -0.2866708), wk =   0.0500000
        k(    4) = (  -0.0185308   0.0671062  -0.0955569), wk =   0.0500000
        k(    5) = (   0.0185308   0.3095142   0.0955569), wk =   0.0500000
        k(    6) = (   0.0555925   0.3636120   0.2866708), wk =   0.0500000
        k(    7) = (  -0.0555925   0.2013185  -0.2866708), wk =   0.0500000
        k(    8) = (  -0.0185308   0.2554163  -0.0955569), wk =   0.0500000
        k(    9) = (   0.2222568   0.1318867   0.0955569), wk =   0.0500000
        k(   10) = (   0.2593184   0.1859846   0.2866708), wk =   0.0500000
        k(   11) = (   0.1481335   0.0236911  -0.2866708), wk =   0.0500000
        k(   12) = (   0.1851951   0.0777889  -0.0955569), wk =   0.0500000
        k(   13) = (   0.2222568   0.3201969   0.0955569), wk =   0.0500000
        k(   14) = (   0.2593184   0.3742947   0.2866708), wk =   0.0500000
        k(   15) = (   0.1481335   0.2120013  -0.2866708), wk =   0.0500000
        k(   16) = (   0.1851951   0.2660991  -0.0955569), wk =   0.0500000
        k(   17) = (   0.2222568  -0.2447336   0.0955569), wk =   0.0500000
        k(   18) = (   0.2593184  -0.1906357   0.2866708), wk =   0.0500000
        k(   19) = (   0.1481335  -0.3529292  -0.2866708), wk =   0.0500000
        k(   20) = (   0.1851951  -0.2988314  -0.0955569), wk =   0.0500000
        k(   21) = (   0.2222568  -0.0564234   0.0955569), wk =   0.0500000
        k(   22) = (   0.2593184  -0.0023256   0.2866708), wk =   0.0500000
        k(   23) = (   0.1481335  -0.1646191  -0.2866708), wk =   0.0500000
        k(   24) = (   0.1851951  -0.1105212  -0.0955569), wk =   0.0500000
        k(   25) = (   0.4259827   0.1425695   0.0955569), wk =   0.0500000
        k(   26) = (   0.4630444   0.1966673   0.2866708), wk =   0.0500000
        k(   27) = (   0.3518595   0.0343738  -0.2866708), wk =   0.0500000
        k(   28) = (   0.3889211   0.0884717  -0.0955569), wk =   0.0500000
        k(   29) = (   0.4259827   0.3308797   0.0955569), wk =   0.0500000
        k(   30) = (   0.4630444   0.3849775   0.2866708), wk =   0.0500000
        k(   31) = (   0.3518595   0.2226840  -0.2866708), wk =   0.0500000
        k(   32) = (   0.3889211   0.2767818  -0.0955569), wk =   0.0500000
        k(   33) = (   0.4259827  -0.2340508   0.0955569), wk =   0.0500000
        k(   34) = (   0.4630444  -0.1799530   0.2866708), wk =   0.0500000
        k(   35) = (   0.3518595  -0.3422465  -0.2866708), wk =   0.0500000
        k(   36) = (   0.3889211  -0.2881486  -0.0955569), wk =   0.0500000
        k(   37) = (   0.4259827  -0.0457407   0.0955569), wk =   0.0500000
        k(   38) = (   0.4630444   0.0083572   0.2866708), wk =   0.0500000
        k(   39) = (   0.3518595  -0.1539363  -0.2866708), wk =   0.0500000
        k(   40) = (   0.3889211  -0.0998385  -0.0955569), wk =   0.0500000

     Dense  grid:   923193 G-vectors     FFT dimensions: ( 108, 144, 135)

     Smooth grid:   326415 G-vectors     FFT dimensions: (  72, 100,  96)

     Estimated max dynamical RAM per process >      16.62 GB

     Initial potential from superposition of free atoms

     starting charge     511.9952, renormalised to     512.0000
     Starting wfcs are  277 randomized atomic wfcs +   30 random wfcs

     total cpu time spent up to now is    12575.4 secs

     Self-consistent Calculation

     iteration #  1     ecut=   110.00 Ry     beta= 0.30
     Davidson diagonalization with overlap
     ethr =  1.00E-02,  avg # of iterations =  3.0

     total cpu time spent up to now is    53282.3 secs

     total energy              =  -13565.70689164 Ry
     estimated scf accuracy    <       5.13850000 Ry

     iteration #  2     ecut=   110.00 Ry     beta= 0.30
     Davidson diagonalization with overlap
     ethr =  1.00E-03,  avg # of iterations =  2.6

     total cpu time spent up to now is    82664.3 secs

     total energy              =  -13565.63682610 Ry
     estimated scf accuracy    <      27.53910599 Ry

     iteration #  3     ecut=   110.00 Ry     beta= 0.30
     Davidson diagonalization with overlap
     ethr =  1.00E-03,  avg # of iterations =  2.0

     total cpu time spent up to now is   103945.9 secs

     total energy              =  -13567.12082036 Ry
     estimated scf accuracy    <      13.96192611 Ry

     iteration #  4     ecut=   110.00 Ry     beta= 0.30
     Davidson diagonalization with overlap
     ethr =  1.00E-03,  avg # of iterations =  1.0

     total cpu time spent up to now is   120406.2 secs

     total energy              =  -13567.61477466 Ry
     estimated scf accuracy    <       1.06995068 Ry

     iteration #  5     ecut=   110.00 Ry     beta= 0.30
     Davidson diagonalization with overlap
     ethr =  2.09E-04,  avg # of iterations =  1.1

     total cpu time spent up to now is   134610.0 secs

     total energy              =  -13567.66772700 Ry
     estimated scf accuracy    <       0.20380540 Ry

     iteration #  6     ecut=   110.00 Ry     beta= 0.30
     Davidson diagonalization with overlap
     ethr =  3.98E-05,  avg # of iterations =  1.6

     total cpu time spent up to now is   149247.4 secs

     total energy              =  -13567.66420194 Ry
     estimated scf accuracy    <       0.06556711 Ry

     iteration #  7     ecut=   110.00 Ry     beta= 0.30
     Davidson diagonalization with overlap
     ethr =  1.28E-05,  avg # of iterations =  3.8

     total cpu time spent up to now is   165464.4 secs

     total energy              =  -13567.66171827 Ry
     estimated scf accuracy    <       0.10141963 Ry

     iteration #  8     ecut=   110.00 Ry     beta= 0.30
     Davidson diagonalization with overlap
     ethr =  1.28E-05,  avg # of iterations =  1.5

     total cpu time spent up to now is   178806.8 secs

     total energy              =  -13567.66530104 Ry
     estimated scf accuracy    <       0.01913390 Ry

     iteration #  9     ecut=   110.00 Ry     beta= 0.30
     Davidson diagonalization with overlap
     ethr =  3.74E-06,  avg # of iterations =  4.0

     total cpu time spent up to now is   191820.8 secs

     total energy              =  -13567.66539159 Ry
     estimated scf accuracy    <       0.02766291 Ry

     iteration # 10     ecut=   110.00 Ry     beta= 0.30
     Davidson diagonalization with overlap
     ethr =  3.74E-06,  avg # of iterations =  1.4

     total cpu time spent up to now is   203547.6 secs

     total energy              =  -13567.66628267 Ry
     estimated scf accuracy    <       0.02269586 Ry

     iteration # 11     ecut=   110.00 Ry     beta= 0.30
     Davidson diagonalization with overlap
     ethr =  3.74E-06,  avg # of iterations =  1.1

     total cpu time spent up to now is   214700.5 secs

     total energy              =  -13567.66684679 Ry
     estimated scf accuracy    <       0.00554819 Ry

     iteration # 12     ecut=   110.00 Ry     beta= 0.30
     Davidson diagonalization with overlap
     ethr =  1.08E-06,  avg # of iterations =  1.9

     total cpu time spent up to now is   224883.1 secs

     total energy              =  -13567.66677224 Ry
     estimated scf accuracy    <       0.00281650 Ry

     iteration # 13     ecut=   110.00 Ry     beta= 0.30
     Davidson diagonalization with overlap
     ethr =  5.50E-07,  avg # of iterations =  1.7

     total cpu time spent up to now is   229015.1 secs

     total energy              =  -13567.66673503 Ry
     estimated scf accuracy    <       0.00866511 Ry

     iteration # 14     ecut=   110.00 Ry     beta= 0.30
     Davidson diagonalization with overlap
     c_bands:  1 eigenvalues not converged
     ethr =  5.50E-07,  avg # of iterations =  1.9

     total cpu time spent up to now is   232481.2 secs

     total energy              =  -13567.66715052 Ry
     estimated scf accuracy    <       0.00092237 Ry

     iteration # 15     ecut=   110.00 Ry     beta= 0.30
     Davidson diagonalization with overlap
     ethr =  1.80E-07,  avg # of iterations =  1.2

     total cpu time spent up to now is   236020.5 secs

     total energy              =  -13567.66716408 Ry
     estimated scf accuracy    <       0.00081008 Ry

     iteration # 16     ecut=   110.00 Ry     beta= 0.30
     Davidson diagonalization with overlap
     ethr =  1.58E-07,  avg # of iterations =  1.1

     total cpu time spent up to now is   239464.4 secs

     total energy              =  -13567.66718188 Ry
     estimated scf accuracy    <       0.00067477 Ry

     iteration # 17     ecut=   110.00 Ry     beta= 0.30
     Davidson diagonalization with overlap
     ethr =  1.32E-07,  avg # of iterations =  1.2

     total cpu time spent up to now is   242961.8 secs

     total energy              =  -13567.66720557 Ry
     estimated scf accuracy    <       0.00018124 Ry

     iteration # 18     ecut=   110.00 Ry     beta= 0.30
     Davidson diagonalization with overlap
     ethr =  3.54E-08,  avg # of iterations =  1.1

     total cpu time spent up to now is   246379.4 secs

     total energy              =  -13567.66721647 Ry
     estimated scf accuracy    <       0.00011030 Ry

     iteration # 19     ecut=   110.00 Ry     beta= 0.30
     Davidson diagonalization with overlap
     ethr =  2.15E-08,  avg # of iterations =  1.1

     total cpu time spent up to now is   249798.6 secs

     total energy              =  -13567.66721984 Ry
     estimated scf accuracy    <       0.00006407 Ry

     iteration # 20     ecut=   110.00 Ry     beta= 0.30
     Davidson diagonalization with overlap
     ethr =  1.25E-08,  avg # of iterations =  1.0

     total cpu time spent up to now is   253180.6 secs

     total energy              =  -13567.66722001 Ry
     estimated scf accuracy    <       0.00002290 Ry

     iteration # 21     ecut=   110.00 Ry     beta= 0.30
     Davidson diagonalization with overlap
     ethr =  4.47E-09,  avg # of iterations =  1.1

     total cpu time spent up to now is   256610.0 secs

     total energy              =  -13567.66722063 Ry
     estimated scf accuracy    <       0.00007258 Ry

     iteration # 22     ecut=   110.00 Ry     beta= 0.30
     Davidson diagonalization with overlap
     ethr =  4.47E-09,  avg # of iterations =  1.0

     total cpu time spent up to now is   260013.6 secs

     total energy              =  -13567.66722362 Ry
     estimated scf accuracy    <       0.00001148 Ry

     iteration # 23     ecut=   110.00 Ry     beta= 0.30
     Davidson diagonalization with overlap
     ethr =  2.24E-09,  avg # of iterations =  1.0

     total cpu time spent up to now is   263402.1 secs

     total energy              =  -13567.66722393 Ry
     estimated scf accuracy    <       0.00000257 Ry

     iteration # 24     ecut=   110.00 Ry     beta= 0.30
     Davidson diagonalization with overlap
     ethr =  5.02E-10,  avg # of iterations =  1.1

     total cpu time spent up to now is   266822.5 secs

     total energy              =  -13567.66722384 Ry
     estimated scf accuracy    <       0.00001191 Ry

     iteration # 25     ecut=   110.00 Ry     beta= 0.30
     Davidson diagonalization with overlap
     ethr =  5.02E-10,  avg # of iterations =  1.0

     total cpu time spent up to now is   270227.0 secs

     total energy              =  -13567.66722422 Ry
     estimated scf accuracy    <       0.00000296 Ry

     iteration # 26     ecut=   110.00 Ry     beta= 0.30
     Davidson diagonalization with overlap
     ethr =  5.02E-10,  avg # of iterations =  1.0

     total cpu time spent up to now is   273615.9 secs

     total energy              =  -13567.66722428 Ry
     estimated scf accuracy    <       0.00000216 Ry

     iteration # 27     ecut=   110.00 Ry     beta= 0.30
     Davidson diagonalization with overlap
     ethr =  4.22E-10,  avg # of iterations =  1.0

     total cpu time spent up to now is   277020.2 secs

     total energy              =  -13567.66722433 Ry
     estimated scf accuracy    <       0.00000185 Ry

     iteration # 28     ecut=   110.00 Ry     beta= 0.30
     Davidson diagonalization with overlap
     ethr =  3.62E-10,  avg # of iterations =  1.0

     total cpu time spent up to now is   280407.8 secs

     total energy              =  -13567.66722437 Ry
     estimated scf accuracy    <       0.00000095 Ry

     iteration # 29     ecut=   110.00 Ry     beta= 0.30
     Davidson diagonalization with overlap
     ethr =  1.85E-10,  avg # of iterations =  1.1

     total cpu time spent up to now is   283828.1 secs

     total energy              =  -13567.66722440 Ry
     estimated scf accuracy    <       0.00000031 Ry

     iteration # 30     ecut=   110.00 Ry     beta= 0.30
     Davidson diagonalization with overlap
     ethr =  6.10E-11,  avg # of iterations =  1.0

     total cpu time spent up to now is   287216.2 secs

     total energy              =  -13567.66722442 Ry
     estimated scf accuracy    <       0.00000028 Ry

     iteration # 31     ecut=   110.00 Ry     beta= 0.30
     Davidson diagonalization with overlap
     ethr =  5.46E-11,  avg # of iterations =  1.0

     total cpu time spent up to now is   290621.8 secs

     total energy              =  -13567.66722442 Ry
     estimated scf accuracy    <       0.00000021 Ry

     iteration # 32     ecut=   110.00 Ry     beta= 0.30
     Davidson diagonalization with overlap
     ethr =  4.18E-11,  avg # of iterations =  1.0

     total cpu time spent up to now is   294010.7 secs

     total energy              =  -13567.66722442 Ry
     estimated scf accuracy    <       0.00000012 Ry

     iteration # 33     ecut=   110.00 Ry     beta= 0.30
     Davidson diagonalization with overlap
     ethr =  2.27E-11,  avg # of iterations =  1.0

     total cpu time spent up to now is   297408.4 secs

     total energy              =  -13567.66722443 Ry
     estimated scf accuracy    <       0.00000005 Ry

     iteration # 34     ecut=   110.00 Ry     beta= 0.30
     Davidson diagonalization with overlap
     ethr =  9.90E-12,  avg # of iterations =  1.0

     total cpu time spent up to now is   300790.1 secs

     total energy              =  -13567.66722443 Ry
     estimated scf accuracy    <       0.00000008 Ry

     iteration # 35     ecut=   110.00 Ry     beta= 0.30
     Davidson diagonalization with overlap
     ethr =  9.90E-12,  avg # of iterations =  1.0

     total cpu time spent up to now is   304187.0 secs

     total energy              =  -13567.66722443 Ry
     estimated scf accuracy    <       0.00000005 Ry

     iteration # 36     ecut=   110.00 Ry     beta= 0.30
     Davidson diagonalization with overlap
     ethr =  9.90E-12,  avg # of iterations =  1.0

     total cpu time spent up to now is   307634.0 secs

     total energy              =  -13567.66722443 Ry
     estimated scf accuracy    <       0.00000004 Ry

     iteration # 37     ecut=   110.00 Ry     beta= 0.30
     Davidson diagonalization with overlap
     ethr =  7.01E-12,  avg # of iterations =  1.0

     total cpu time spent up to now is   311037.8 secs

     total energy              =  -13567.66722443 Ry
     estimated scf accuracy    <       0.00000003 Ry

     iteration # 38     ecut=   110.00 Ry     beta= 0.30
     Davidson diagonalization with overlap
     ethr =  5.26E-12,  avg # of iterations =  1.1

     total cpu time spent up to now is   314450.0 secs

     total energy              =  -13567.66722443 Ry
     estimated scf accuracy    <       0.00000001 Ry

     iteration # 39     ecut=   110.00 Ry     beta= 0.30
     Davidson diagonalization with overlap
     ethr =  2.31E-12,  avg # of iterations =  1.0

     total cpu time spent up to now is   317845.8 secs

     End of self-consistent calculation

          k = 0.0185 0.1212 0.0956 ( 40814 PWs)   bands (ev):

   -75.9524 -75.8820 -75.8727 -75.8450 -75.8362 -75.8095 -75.7806 -75.7558
   -75.7531 -75.7450 -75.7414 -61.7014 -61.6864 -61.6767 -61.6615 -61.6409
   -61.6253 -61.5943 -55.8415 -55.8170 -44.3668 -44.3596 -44.3458 -44.3400
   -44.3366 -44.3342 -44.3313 -44.2998 -44.2945 -44.2884 -44.2833 -44.2806
   -44.2711 -44.2681 -44.2674 -44.2632 -44.2625 -44.2592 -44.2571 -44.2549
   -44.2541 -44.2492 -44.2471 -44.2444 -44.2426 -44.2412 -44.2290 -44.2281
   -44.2235 -44.2222 -44.2189 -44.2174 -44.2101 -44.2100 -44.2089 -44.2068
   -44.2060 -44.2041 -44.1927 -44.1912 -44.1870 -44.1849 -44.1799 -44.1757
   -44.1734 -44.1712 -44.1677 -44.1649 -44.1609 -44.1604 -44.1597 -44.1583
   -44.1570 -44.1549 -44.1540 -44.1531 -44.1529 -44.1493 -44.1451 -44.1391
   -44.1356 -44.1341 -44.1338 -44.1281 -44.1281 -44.1264 -44.1247 -44.1230
   -44.1212 -44.1207 -44.1206 -44.1170 -44.1164 -44.1155 -44.1151 -44.1131
   -44.1082 -30.1952 -30.1435 -30.1079 -30.0965 -30.0790 -30.0717 -30.0402
   -30.0310 -30.0120 -29.9959 -29.9853 -29.9710 -29.9580 -29.9360 -29.9278
   -29.9246 -29.9195 -29.9021 -29.8986 -29.8792 -29.8688 -29.8581 -29.8522
   -29.8410 -29.8381 -29.8295 -29.8257 -29.8139 -29.8111 -29.8092 -29.7962
   -29.7924 -29.7844 -27.4607 -27.4504 -27.4456 -27.4396 -27.4339 -27.4291
   -27.4214 -27.4165 -27.4034 -27.3962 -27.3807 -27.3760 -27.3664 -27.3513
   -27.3355 -27.3250 -27.3103 -27.2755 -27.2474 -27.2399 -27.2125 -23.7357
   -23.7191 -23.7005 -23.6783 -23.6445 -23.6058  13.9864  15.8241  16.1339
    16.3093  16.4531  16.5293  16.6964  16.7695  16.8541  16.9674  16.9994
    17.0786  17.2109  17.2977  17.3269  17.4068  17.5111  17.6178  17.6589
    17.7211  17.7999  17.8447  17.8880  18.0137  18.0864  18.1411  18.2404
    18.3799  18.4286  18.4545  18.5569  18.6977  18.8224  18.8910  18.9219
    19.0469  19.0599  19.1571  19.1998  19.2171  19.2500  19.3032  19.3378
    19.4018  19.4205  19.4622  19.4908  19.5226  19.5776  19.6267  19.6750
    19.7134  19.7827  19.8272  19.8815  19.9372  20.0783  20.1105  20.2143
    20.2565  20.2831  20.4272  20.4606  20.4853  20.5663  20.6893  20.7103
    20.8006  20.9599  20.9934  21.0573  21.1026  21.1545  21.1853  21.3193
    21.3629  21.3897  21.5702  21.5996  21.6302  21.6567  21.7453  21.9687
    22.1009  22.2115  22.2243  22.3025  22.3237  22.3435  22.3665  22.3793
    22.4179  22.4311  22.4601  22.4796  22.4904  22.5179  22.5573  22.5656
    22.5933  22.6484  22.6738  22.8229  22.8883  22.9332  22.9851  23.1092
    23.8342  23.9374  24.4266  24.5883  24.7914  24.9837  25.1914  25.2863
    26.8374  27.1716  28.1166  28.2927  28.4182  28.9449  29.2863  29.4078
    29.6212  29.7939  30.0163  30.9451  31.2590  31.6753  31.9690  32.2438
    32.7562  32.9904  33.2844  33.4030  33.7145  33.8379  33.9693  34.2208
    34.3840  34.4938  34.6546  34.8953  35.0945  35.2148  35.2629  35.6015
    35.8129  36.0130  36.2761

          k = 0.0556 0.1753 0.2867 ( 40792 PWs)   bands (ev):

   -75.9524 -75.8820 -75.8726 -75.8450 -75.8362 -75.8095 -75.7806 -75.7558
   -75.7531 -75.7449 -75.7414 -61.7014 -61.6864 -61.6767 -61.6615 -61.6409
   -61.6253 -61.5943 -55.8415 -55.8170 -44.3668 -44.3596 -44.3458 -44.3400
   -44.3366 -44.3342 -44.3313 -44.2998 -44.2945 -44.2884 -44.2833 -44.2806
   -44.2711 -44.2681 -44.2674 -44.2632 -44.2625 -44.2592 -44.2571 -44.2549
   -44.2541 -44.2492 -44.2471 -44.2444 -44.2426 -44.2412 -44.2290 -44.2281
   -44.2235 -44.2222 -44.2189 -44.2174 -44.2101 -44.2100 -44.2089 -44.2068
   -44.2060 -44.2041 -44.1927 -44.1912 -44.1870 -44.1849 -44.1799 -44.1757
   -44.1734 -44.1712 -44.1677 -44.1649 -44.1609 -44.1604 -44.1597 -44.1583
   -44.1570 -44.1549 -44.1540 -44.1531 -44.1529 -44.1493 -44.1451 -44.1391
   -44.1356 -44.1341 -44.1338 -44.1281 -44.1281 -44.1264 -44.1247 -44.1230
   -44.1212 -44.1207 -44.1206 -44.1170 -44.1164 -44.1155 -44.1151 -44.1131
   -44.1082 -30.1955 -30.1445 -30.1110 -30.0969 -30.0829 -30.0743 -30.0396
   -30.0296 -30.0127 -29.9944 -29.9805 -29.9698 -29.9549 -29.9327 -29.9273
   -29.9221 -29.9083 -29.9014 -29.8963 -29.8851 -29.8761 -29.8604 -29.8550
   -29.8438 -29.8354 -29.8308 -29.8254 -29.8148 -29.8130 -29.8092 -29.7954
   -29.7927 -29.7842 -27.4614 -27.4501 -27.4455 -27.4375 -27.4353 -27.4299
   -27.4235 -27.4176 -27.4019 -27.3893 -27.3852 -27.3775 -27.3672 -27.3527
   -27.3326 -27.3240 -27.3123 -27.2619 -27.2526 -27.2465 -27.2129 -23.7357
   -23.7191 -23.7005 -23.6783 -23.6445 -23.6057  14.4463  15.2597  15.9483
    16.2709  16.3842  16.4171  16.6594  16.7352  16.8068  16.9045  17.0068
    17.0609  17.1101  17.3025  17.3753  17.4068  17.4818  17.6071  17.7436
    17.7739  17.8229  17.8917  18.0102  18.0930  18.1523  18.2810  18.3947
    18.4460  18.4907  18.5807  18.6189  18.8082  18.8335  18.8945  18.9377
    18.9698  19.0036  19.0917  19.1447  19.1766  19.2402  19.2836  19.3513
    19.3848  19.3956  19.4676  19.5065  19.5416  19.5861  19.6444  19.7056
    19.7866  19.8294  19.8553  19.8727  19.9508  20.0046  20.0364  20.1728
    20.1814  20.3780  20.4024  20.4501  20.5242  20.5554  20.5849  20.6353
    20.7522  20.8087  20.8453  20.9451  21.0087  21.0916  21.1681  21.2301
    21.3845  21.4449  21.5818  21.6026  21.7180  21.7687  21.8213  21.9145
    22.0047  22.1311  22.2049  22.2782  22.3186  22.3448  22.3609  22.3984
    22.4287  22.4870  22.5135  22.5518  22.5638  22.6096  22.6495  22.6703
    22.7085  22.7547  22.7726  22.8337  22.8691  22.9679  23.0474  23.3080
    23.4948  24.3769  24.5319  24.8589  25.0749  25.2908  25.3026  25.4533
    25.6414  26.7680  26.9634  28.2087  28.4242  28.7321  29.1307  29.3612
    29.5518  29.8855  30.7399  31.2116  31.6786  31.8676  32.2436  32.3598
    32.5838  33.0594  33.1273  33.4065  33.5321  33.8106  33.9550  34.3142
    34.3832  34.5215  34.5617  34.6148  34.8054  34.9265  35.0383  35.6395
    35.7877  35.8309  35.9812

          k =-0.0556 0.0130-0.2867 ( 40818 PWs)   bands (ev):

   -75.9524 -75.8820 -75.8726 -75.8450 -75.8362 -75.8095 -75.7806 -75.7558
   -75.7531 -75.7449 -75.7414 -61.7014 -61.6864 -61.6767 -61.6615 -61.6409
   -61.6253 -61.5943 -55.8415 -55.8170 -44.3668 -44.3596 -44.3458 -44.3400
   -44.3366 -44.3342 -44.3313 -44.2998 -44.2945 -44.2884 -44.2833 -44.2806
   -44.2711 -44.2681 -44.2674 -44.2632 -44.2625 -44.2592 -44.2571 -44.2549
   -44.2541 -44.2492 -44.2471 -44.2444 -44.2426 -44.2412 -44.2290 -44.2281
   -44.2235 -44.2222 -44.2189 -44.2174 -44.2101 -44.2100 -44.2089 -44.2068
   -44.2060 -44.2041 -44.1927 -44.1912 -44.1870 -44.1849 -44.1799 -44.1757
   -44.1734 -44.1712 -44.1677 -44.1649 -44.1609 -44.1604 -44.1597 -44.1583
   -44.1570 -44.1549 -44.1540 -44.1531 -44.1529 -44.1493 -44.1451 -44.1391
   -44.1356 -44.1341 -44.1338 -44.1281 -44.1281 -44.1264 -44.1247 -44.1230
   -44.1212 -44.1207 -44.1206 -44.1170 -44.1164 -44.1155 -44.1151 -44.1131
   -44.1082 -30.1961 -30.1458 -30.1096 -30.0970 -30.0814 -30.0729 -30.0392
   -30.0344 -30.0114 -29.9928 -29.9799 -29.9700 -29.9514 -29.9339 -29.9261
   -29.9232 -29.9140 -29.9013 -29.8971 -29.8828 -29.8751 -29.8649 -29.8514
   -29.8446 -29.8333 -29.8326 -29.8249 -29.8139 -29.8128 -29.8099 -29.7954
   -29.7928 -29.7842 -27.4615 -27.4502 -27.4457 -27.4400 -27.4341 -27.4290
   -27.4217 -27.4179 -27.4031 -27.3929 -27.3843 -27.3755 -27.3654 -27.3507
   -27.3334 -27.3248 -27.3083 -27.2759 -27.2479 -27.2430 -27.2121 -23.7357
   -23.7191 -23.7005 -23.6783 -23.6445 -23.6057  14.3118  15.4471  16.1537
    16.3403  16.4115  16.4428  16.6022  16.6993  16.7921  16.8227  16.9402
    17.0166  17.1032  17.2544  17.3038  17.3959  17.5269  17.6942  17.7266
    17.7799  17.8559  17.8888  17.9317  18.0388  18.0777  18.2132  18.3756
    18.4243  18.5118  18.5316  18.5636  18.8295  18.8861  18.9279  18.9799
    19.0393  19.0876  19.1103  19.1882  19.2419  19.2668  19.3017  19.3178
    19.3631  19.4135  19.4389  19.4640  19.5462  19.6131  19.6504  19.7087
    19.7288  19.7480  19.7672  19.8478  19.8658  19.9087  19.9718  20.0430
    20.0929  20.3797  20.4497  20.4907  20.5607  20.7042  20.7287  20.8011
    20.8851  20.9842  21.0178  21.0693  21.1343  21.1825  21.3134  21.3404
    21.3662  21.4482  21.5004  21.5498  21.6015  21.6501  21.6883  21.7737
    21.8883  21.9315  21.9756  22.0233  22.0750  22.1265  22.2644  22.3482
    22.3935  22.4379  22.4700  22.4806  22.5204  22.5504  22.5915  22.6334
    22.6853  22.7388  22.8569  22.8876  22.9364  23.0387  23.8007  23.8695
    23.9225  24.3606  24.5694  24.7802  24.9824  25.1508  25.2256  25.3132
    25.6137  27.1608  27.3932  28.1185  28.3065  28.6655  29.0055  29.1114
    29.4613  30.0266  30.0998  30.7922  30.9210  31.7932  31.9977  32.8434
    32.9819  33.0346  33.3376  33.4068  33.7211  33.9218  34.2202  34.3393
    34.4651  34.5144  34.5761  34.6505  34.9672  35.0889  35.4321  35.6254
    35.8267  35.9736  36.2650

          k =-0.0185 0.0671-0.0956 ( 40816 PWs)   bands (ev):

   -75.9524 -75.8820 -75.8727 -75.8450 -75.8362 -75.8095 -75.7806 -75.7558
   -75.7530 -75.7450 -75.7414 -61.7014 -61.6864 -61.6767 -61.6615 -61.6409
   -61.6253 -61.5943 -55.8415 -55.8170 -44.3668 -44.3596 -44.3458 -44.3400
   -44.3366 -44.3342 -44.3313 -44.2998 -44.2945 -44.2884 -44.2833 -44.2806
   -44.2711 -44.2681 -44.2674 -44.2632 -44.2625 -44.2592 -44.2571 -44.2549
   -44.2541 -44.2492 -44.2471 -44.2444 -44.2426 -44.2412 -44.2290 -44.2281
   -44.2235 -44.2222 -44.2189 -44.2174 -44.2101 -44.2100 -44.2089 -44.2068
   -44.2060 -44.2041 -44.1927 -44.1912 -44.1870 -44.1849 -44.1799 -44.1757
   -44.1734 -44.1712 -44.1677 -44.1649 -44.1609 -44.1604 -44.1597 -44.1583
   -44.1570 -44.1549 -44.1540 -44.1531 -44.1529 -44.1493 -44.1451 -44.1391
   -44.1356 -44.1341 -44.1338 -44.1281 -44.1281 -44.1264 -44.1247 -44.1230
   -44.1212 -44.1207 -44.1206 -44.1170 -44.1164 -44.1155 -44.1151 -44.1131
   -44.1082 -30.1959 -30.1448 -30.1063 -30.0974 -30.0777 -30.0677 -30.0413
   -30.0355 -30.0121 -29.9921 -29.9890 -29.9662 -29.9557 -29.9374 -29.9329
   -29.9248 -29.9194 -29.9025 -29.8990 -29.8774 -29.8665 -29.8620 -29.8523
   -29.8417 -29.8376 -29.8294 -29.8248 -29.8121 -29.8112 -29.8103 -29.7961
   -29.7925 -29.7843 -27.4607 -27.4504 -27.4458 -27.4407 -27.4341 -27.4282
   -27.4197 -27.4168 -27.4058 -27.3977 -27.3801 -27.3727 -27.3663 -27.3492
   -27.3381 -27.3238 -27.3048 -27.2868 -27.2471 -27.2369 -27.2116 -23.7357
   -23.7191 -23.7005 -23.6783 -23.6445 -23.6058  13.9291  15.9656  16.2941
    16.3415  16.4534  16.6042  16.6710  16.7451  16.8147  16.9954  17.0486
    17.0799  17.2090  17.2719  17.3217  17.3577  17.4448  17.4920  17.5640
    17.7022  17.7440  17.7614  17.8528  17.9008  18.0710  18.0738  18.2953
    18.4026  18.4757  18.5208  18.6360  18.6805  18.7929  18.8700  18.9085
    19.0116  19.0495  19.2003  19.2299  19.2589  19.2832  19.3396  19.3822
    19.4080  19.4342  19.4618  19.5082  19.5652  19.6171  19.6445  19.7145
    19.7535  19.7767  19.8253  19.9190  19.9593  20.0383  20.1721  20.2049
    20.2716  20.3124  20.3909  20.4369  20.4838  20.5424  20.5884  20.6938
    20.8798  20.9692  21.0454  21.0761  21.1507  21.1702  21.2143  21.2751
    21.3030  21.3767  21.4600  21.5097  21.5537  21.7621  21.8084  21.8639
    21.8894  21.9439  21.9899  22.0500  22.0760  22.1607  22.1913  22.3681
    22.4453  22.4860  22.5186  22.5380  22.5568  22.6243  22.6461  22.6612
    22.7159  22.7518  22.7978  22.8205  22.8979  22.9840  23.4833  23.5840
    23.7115  23.8049  24.4303  24.5381  24.8541  25.0970  25.2766  25.4533
    26.7575  27.3039  28.0830  28.2938  28.5409  28.8398  28.9257  29.1437
    29.5352  29.9069  29.9826  30.5410  30.7666  31.3717  32.0008  32.3564
    33.0204  33.2220  33.3117  33.4452  33.7433  33.8941  34.0182  34.2762
    34.5341  34.5557  34.8216  34.8651  34.9567  35.6049  35.6559  35.8145
    35.8808  35.9978  36.2767

          k = 0.0185 0.3095 0.0956 ( 40789 PWs)   bands (ev):

   -75.9524 -75.8820 -75.8727 -75.8450 -75.8362 -75.8095 -75.7806 -75.7558
   -75.7530 -75.7450 -75.7414 -61.7014 -61.6864 -61.6767 -61.6615 -61.6409
   -61.6252 -61.5943 -55.8415 -55.8170 -44.3668 -44.3596 -44.3458 -44.3400
   -44.3366 -44.3342 -44.3313 -44.2998 -44.2945 -44.2884 -44.2833 -44.2806
   -44.2711 -44.2681 -44.2674 -44.2632 -44.2625 -44.2592 -44.2571 -44.2549
   -44.2541 -44.2492 -44.2471 -44.2444 -44.2426 -44.2412 -44.2290 -44.2281
   -44.2235 -44.2222 -44.2189 -44.2174 -44.2101 -44.2100 -44.2089 -44.2068
   -44.2060 -44.2041 -44.1927 -44.1912 -44.1870 -44.1849 -44.1799 -44.1757
   -44.1734 -44.1712 -44.1677 -44.1649 -44.1609 -44.1604 -44.1597 -44.1583
   -44.1570 -44.1549 -44.1540 -44.1531 -44.1529 -44.1493 -44.1451 -44.1391
   -44.1356 -44.1341 -44.1338 -44.1281 -44.1281 -44.1264 -44.1247 -44.1230
   -44.1212 -44.1207 -44.1206 -44.1170 -44.1164 -44.1155 -44.1151 -44.1131
   -44.1082 -30.1881 -30.1470 -30.1108 -30.0957 -30.0842 -30.0744 -30.0413
   -30.0279 -30.0127 -29.9950 -29.9867 -29.9716 -29.9591 -29.9366 -29.9269
   -29.9193 -29.9123 -29.9025 -29.8994 -29.8813 -29.8674 -29.8599 -29.8482
   -29.8447 -29.8370 -29.8283 -29.8258 -29.8166 -29.8113 -29.8084 -29.7980
   -29.7933 -29.7842 -27.4592 -27.4495 -27.4472 -27.4371 -27.4347 -27.4308
   -27.4231 -27.4162 -27.4020 -27.3921 -27.3831 -27.3789 -27.3674 -27.3535
   -27.3359 -27.3251 -27.3114 -27.2598 -27.2534 -27.2420 -27.2148 -23.7357
   -23.7191 -23.7005 -23.6783 -23.6445 -23.6058  14.4247  15.0085  16.0056
    16.3558  16.5175  16.7154  16.7889  16.9007  17.0047  17.0494  17.1044
    17.1575  17.1754  17.2608  17.2980  17.3527  17.3763  17.4480  17.5272
    17.5603  17.6065  17.6280  17.7289  17.7921  17.9815  18.1667  18.2252
    18.2656  18.3237  18.5311  18.5635  18.8679  18.9677  19.0998  19.1361
    19.1519  19.2485  19.3249  19.3476  19.3841  19.4192  19.5078  19.5511
    19.5886  19.5997  19.6603  19.7253  19.7389  19.7637  19.7778  19.8059
    19.8371  19.8837  19.9079  19.9220  19.9594  19.9881  20.0092  20.0354
    20.0699  20.1372  20.3434  20.3837  20.5199  20.5786  20.6511  20.6980
    20.7333  20.7747  20.8036  20.8276  20.8393  20.9891  21.0946  21.1421
    21.1787  21.2136  21.2311  21.3097  21.4230  21.4438  21.6722  21.7572
    21.8331  21.9043  21.9115  22.0179  22.0389  22.0688  22.1635  22.4130
    22.4508  22.5115  22.5593  22.5695  22.6021  22.6488  22.6625  22.6835
    22.7426  22.7777  22.8076  22.8640  22.9115  22.9612  24.0537  24.1780
    24.3067  24.3433  24.4781  24.5546  24.9245  24.9418  25.1184  26.3010
    26.4700  26.6320  26.9414  27.5291  28.4125  29.0312  29.3415  29.7077
    30.1203  30.3269  31.0669  31.0942  31.2009  31.3533  31.3698  31.9220
    32.0448  32.3466  32.5015  32.6728  33.1199  33.2157  33.5769  33.8176
    34.0314  34.2113  35.2112  35.4801  35.5687  35.6608  35.7120  35.8513
    35.9715  36.1241  37.1122

          k = 0.0556 0.3636 0.2867 ( 40761 PWs)   bands (ev):

   -75.9524 -75.8820 -75.8727 -75.8450 -75.8362 -75.8095 -75.7806 -75.7558
   -75.7531 -75.7449 -75.7414 -61.7013 -61.6864 -61.6767 -61.6615 -61.6409
   -61.6252 -61.5943 -55.8415 -55.8170 -44.3668 -44.3596 -44.3458 -44.3400
   -44.3366 -44.3342 -44.3313 -44.2998 -44.2945 -44.2884 -44.2833 -44.2806
   -44.2711 -44.2681 -44.2674 -44.2632 -44.2625 -44.2592 -44.2571 -44.2549
   -44.2541 -44.2492 -44.2471 -44.2444 -44.2426 -44.2412 -44.2290 -44.2281
   -44.2235 -44.2222 -44.2189 -44.2174 -44.2101 -44.2100 -44.2089 -44.2068
   -44.2060 -44.2041 -44.1927 -44.1912 -44.1870 -44.1849 -44.1799 -44.1757
   -44.1734 -44.1712 -44.1677 -44.1649 -44.1609 -44.1604 -44.1597 -44.1583
   -44.1570 -44.1549 -44.1540 -44.1531 -44.1529 -44.1493 -44.1451 -44.1391
   -44.1356 -44.1341 -44.1338 -44.1281 -44.1281 -44.1264 -44.1247 -44.1230
   -44.1212 -44.1207 -44.1206 -44.1170 -44.1164 -44.1155 -44.1151 -44.1131
   -44.1082 -30.1901 -30.1480 -30.1104 -30.1020 -30.0823 -30.0743 -30.0444
   -30.0271 -30.0115 -29.9996 -29.9785 -29.9676 -29.9514 -29.9328 -29.9257
   -29.9223 -29.9027 -29.9007 -29.8957 -29.8887 -29.8758 -29.8653 -29.8553
   -29.8446 -29.8332 -29.8283 -29.8248 -29.8159 -29.8124 -29.8082 -29.7982
   -29.7934 -29.7846 -27.4603 -27.4494 -27.4468 -27.4391 -27.4349 -27.4295
   -27.4222 -27.4174 -27.4045 -27.3920 -27.3844 -27.3746 -27.3667 -27.3517
   -27.3346 -27.3246 -27.3065 -27.2734 -27.2494 -27.2421 -27.2134 -23.7357
   -23.7191 -23.7005 -23.6783 -23.6445 -23.6058  14.8117  15.1543  15.4662
    16.2438  16.5063  16.5844  16.8173  16.9190  16.9660  17.0159  17.1125
    17.1522  17.1895  17.2433  17.2713  17.3624  17.3940  17.4399  17.5023
    17.5461  17.5669  17.6459  17.7017  17.7915  17.8563  17.9505  17.9816
    18.6382  18.6797  18.7302  18.7742  18.8175  18.8853  18.9294  19.0483
    19.0828  19.1528  19.3197  19.3900  19.4208  19.4343  19.4934  19.5662
    19.5879  19.6504  19.6778  19.7173  19.7392  19.7529  19.8145  19.8494
    19.8721  19.8893  19.9230  19.9722  20.0057  20.0548  20.0952  20.1424
    20.1715  20.2112  20.2286  20.2580  20.2876  20.3363  20.3544  20.4477
    20.5047  20.6314  20.8179  20.9769  21.0460  21.0987  21.1367  21.2416
    21.3169  21.3380  21.3565  21.4413  21.5044  21.5878  21.6030  21.6491
    21.7778  21.8537  22.1028  22.1646  22.2007  22.2448  22.2626  22.3243
    22.3595  22.4547  22.5150  22.5395  22.5720  22.6236  22.6624  22.6809
    22.7187  22.7952  22.8148  22.8643  22.9539  23.2497  23.4828  23.8027
    24.0533  24.3785  24.5085  25.2846  25.3800  25.6013  25.7661  25.8218
    26.1079  26.5890  26.7631  27.6490  27.9135  29.1939  29.2472  29.6252
    29.6810  29.8818  30.3398  30.4076  30.7274  31.2540  31.3433  31.4244
    31.6485  31.8595  32.3926  33.3406  33.7056  34.0431  34.1076  34.4844
    34.9610  35.0739  35.1663  35.2025  35.2833  35.5158  35.6548  35.8497
    36.7185  37.0046  37.0970

          k =-0.0556 0.2013-0.2867 ( 40771 PWs)   bands (ev):

   -75.9524 -75.8820 -75.8727 -75.8450 -75.8362 -75.8095 -75.7806 -75.7558
   -75.7531 -75.7449 -75.7414 -61.7013 -61.6864 -61.6767 -61.6615 -61.6410
   -61.6252 -61.5943 -55.8415 -55.8170 -44.3668 -44.3596 -44.3458 -44.3400
   -44.3366 -44.3342 -44.3313 -44.2998 -44.2945 -44.2884 -44.2833 -44.2806
   -44.2711 -44.2681 -44.2674 -44.2632 -44.2625 -44.2592 -44.2571 -44.2549
   -44.2541 -44.2492 -44.2471 -44.2444 -44.2426 -44.2412 -44.2290 -44.2281
   -44.2235 -44.2222 -44.2189 -44.2174 -44.2101 -44.2100 -44.2089 -44.2068
   -44.2060 -44.2041 -44.1927 -44.1912 -44.1870 -44.1849 -44.1799 -44.1757
   -44.1734 -44.1712 -44.1677 -44.1649 -44.1609 -44.1604 -44.1597 -44.1583
   -44.1570 -44.1549 -44.1540 -44.1531 -44.1529 -44.1493 -44.1451 -44.1391
   -44.1356 -44.1341 -44.1338 -44.1281 -44.1281 -44.1264 -44.1247 -44.1230
   -44.1212 -44.1207 -44.1206 -44.1170 -44.1164 -44.1155 -44.1151 -44.1131
   -44.1082 -30.1909 -30.1489 -30.1089 -30.1025 -30.0815 -30.0713 -30.0482
   -30.0280 -30.0097 -30.0006 -29.9772 -29.9648 -29.9521 -29.9321 -29.9253
   -29.9234 -29.9061 -29.9025 -29.8981 -29.8847 -29.8761 -29.8642 -29.8579
   -29.8435 -29.8326 -29.8287 -29.8244 -29.8148 -29.8115 -29.8092 -29.7984
   -29.7935 -29.7845 -27.4603 -27.4495 -27.4471 -27.4408 -27.4346 -27.4287
   -27.4202 -27.4176 -27.4059 -27.3940 -27.3842 -27.3733 -27.3651 -27.3490
   -27.3372 -27.3234 -27.2993 -27.2875 -27.2478 -27.2392 -27.2126 -23.7357
   -23.7191 -23.7005 -23.6783 -23.6445 -23.6058  14.5290  15.4361  15.7497
    16.1412  16.6173  16.6950  16.8124  16.8573  16.9212  16.9775  17.0538
    17.0974  17.1608  17.2198  17.2501  17.2967  17.3554  17.4095  17.4848
    17.5015  17.5398  17.5922  17.7080  17.7371  17.8130  18.1640  18.2600
    18.4397  18.4965  18.5576  18.9020  18.9310  19.0006  19.0494  19.0839
    19.1246  19.1589  19.1963  19.2148  19.2788  19.4663  19.4978  19.5707
    19.6014  19.6470  19.6649  19.6926  19.7411  19.7642  19.8052  19.8159
    19.8311  19.8646  19.8851  19.9172  19.9458  19.9631  19.9807  20.0041
    20.0354  20.0667  20.3601  20.3848  20.5050  20.5511  20.5901  20.6451
    20.7426  20.8177  20.9766  21.0630  21.1223  21.1384  21.1544  21.2010
    21.2524  21.2846  21.3140  21.5091  21.5662  21.6354  21.6734  21.7133
    21.7762  21.8158  21.8813  21.9046  21.9938  22.0368  22.0593  22.1606
    22.2577  22.4061  22.5094  22.5160  22.5618  22.5841  22.6096  22.6535
    22.6798  22.7434  22.7885  22.8370  22.8534  22.9431  24.2045  24.2679
    24.4797  24.5728  24.6744  24.8976  25.1022  25.4420  25.7064  26.2775
    26.4745  26.6341  26.9139  27.7005  28.3086  28.4246  28.7162  29.0818
    29.4689  29.7619  30.0738  30.2862  31.0546  31.1606  31.3712  31.4994
    31.8332  31.9213  32.5096  33.1626  33.7386  33.9715  34.1055  34.2184
    35.1913  35.4748  35.5434  35.6042  35.7404  35.9750  36.1289  36.3090
    36.4916  36.6732  36.9653

          k =-0.0185 0.2554-0.0956 ( 40775 PWs)   bands (ev):

   -75.9524 -75.8820 -75.8727 -75.8450 -75.8362 -75.8095 -75.7806 -75.7558
   -75.7530 -75.7450 -75.7414 -61.7014 -61.6864 -61.6767 -61.6615 -61.6409
   -61.6252 -61.5943 -55.8415 -55.8170 -44.3668 -44.3596 -44.3458 -44.3400
   -44.3366 -44.3342 -44.3313 -44.2998 -44.2945 -44.2884 -44.2833 -44.2806
   -44.2711 -44.2681 -44.2674 -44.2632 -44.2625 -44.2592 -44.2571 -44.2549
   -44.2541 -44.2492 -44.2471 -44.2444 -44.2426 -44.2412 -44.2290 -44.2281
   -44.2235 -44.2222 -44.2189 -44.2174 -44.2101 -44.2100 -44.2089 -44.2068
   -44.2060 -44.2041 -44.1927 -44.1912 -44.1870 -44.1849 -44.1799 -44.1757
   -44.1734 -44.1712 -44.1677 -44.1649 -44.1609 -44.1604 -44.1597 -44.1583
   -44.1570 -44.1549 -44.1540 -44.1531 -44.1529 -44.1493 -44.1451 -44.1391
   -44.1356 -44.1341 -44.1338 -44.1281 -44.1281 -44.1264 -44.1247 -44.1230
   -44.1212 -44.1207 -44.1206 -44.1170 -44.1164 -44.1155 -44.1151 -44.1131
   -44.1082 -30.1889 -30.1479 -30.1094 -30.0972 -30.0813 -30.0720 -30.0458
   -30.0268 -30.0125 -29.9965 -29.9869 -29.9664 -29.9595 -29.9372 -29.9257
   -29.9239 -29.9131 -29.9026 -29.8997 -29.8798 -29.8646 -29.8599 -29.8552
   -29.8421 -29.8374 -29.8282 -29.8250 -29.8147 -29.8114 -29.8089 -29.7981
   -29.7934 -29.7841 -27.4591 -27.4494 -27.4476 -27.4394 -27.4345 -27.4294
   -27.4216 -27.4160 -27.4047 -27.3953 -27.3802 -27.3756 -27.3676 -27.3526
   -27.3365 -27.3247 -27.3086 -27.2735 -27.2481 -27.2389 -27.2140 -23.7357
   -23.7191 -23.7005 -23.6783 -23.6445 -23.6058  14.2737  15.2127  16.0715
    16.4855  16.6234  16.6694  16.7794  16.8806  16.9550  17.0239  17.1108
    17.1725  17.2012  17.2385  17.2821  17.3607  17.4129  17.4451  17.4611
    17.5321  17.6124  17.6346  17.7044  17.7866  17.8587  17.8924  17.9534
    17.9858  18.6800  18.7631  18.7749  18.8681  18.9438  19.0680  19.1901
    19.3300  19.3395  19.3928  19.4169  19.4392  19.4632  19.5022  19.5233
    19.5581  19.5838  19.6139  19.6336  19.6732  19.6855  19.7374  19.7529
    19.7727  19.8331  19.8637  19.9305  19.9402  19.9952  20.0938  20.1375
    20.1863  20.2039  20.2741  20.2987  20.3439  20.4176  20.4734  20.4954
    20.6268  20.8660  20.8875  20.9848  21.0502  21.0999  21.1842  21.2539
    21.3145  21.3481  21.3873  21.4022  21.4643  21.4964  21.5278  21.5497
    21.6055  21.6330  21.7672  21.7855  22.1238  22.2222  22.2591  22.3214
    22.3914  22.4773  22.5838  22.6222  22.6630  22.6938  22.7011  22.7317
    22.7760  22.7945  22.8739  22.8944  22.9381  22.9870  23.1050  23.9198
    24.2635  24.4153  24.5065  25.3411  25.5108  25.6056  25.7560  25.8528
    26.0600  26.5036  26.7556  27.6536  27.9431  29.0748  29.4695  29.6021
    29.8920  30.0770  30.5358  30.9606  31.1646  31.2680  31.4728  31.5877
    31.8003  31.9976  32.3779  33.1128  33.5809  33.6694  34.0947  34.2048
    34.5093  34.6432  35.0920  35.2599  35.4870  35.6642  35.7245  35.8058
    35.8763  36.5834  36.8768

          k = 0.2223 0.1319 0.0956 ( 40780 PWs)   bands (ev):

   -75.9524 -75.8819 -75.8727 -75.8450 -75.8361 -75.8096 -75.7807 -75.7558
   -75.7530 -75.7450 -75.7415 -61.7014 -61.6861 -61.6767 -61.6616 -61.6409
   -61.6254 -61.5943 -55.8415 -55.8170 -44.3668 -44.3596 -44.3458 -44.3400
   -44.3366 -44.3342 -44.3313 -44.2998 -44.2945 -44.2884 -44.2832 -44.2806
   -44.2711 -44.2681 -44.2674 -44.2632 -44.2625 -44.2592 -44.2571 -44.2549
   -44.2541 -44.2492 -44.2471 -44.2444 -44.2426 -44.2412 -44.2290 -44.2281
   -44.2235 -44.2222 -44.2189 -44.2174 -44.2101 -44.2100 -44.2089 -44.2068
   -44.2060 -44.2041 -44.1927 -44.1912 -44.1870 -44.1849 -44.1799 -44.1757
   -44.1734 -44.1712 -44.1677 -44.1649 -44.1609 -44.1604 -44.1597 -44.1583
   -44.1570 -44.1549 -44.1540 -44.1531 -44.1529 -44.1493 -44.1451 -44.1391
   -44.1356 -44.1341 -44.1338 -44.1281 -44.1281 -44.1264 -44.1247 -44.1230
   -44.1212 -44.1207 -44.1206 -44.1170 -44.1164 -44.1155 -44.1151 -44.1131
   -44.1082 -30.1825 -30.1415 -30.1068 -30.0864 -30.0777 -30.0693 -30.0365
   -30.0245 -30.0094 -30.0021 -29.9854 -29.9736 -29.9518 -29.9367 -29.9307
   -29.9261 -29.9146 -29.9102 -29.9016 -29.8823 -29.8676 -29.8590 -29.8513
   -29.8448 -29.8390 -29.8345 -29.8265 -29.8210 -29.8141 -29.8103 -29.7983
   -29.7924 -29.7848 -27.4593 -27.4501 -27.4459 -27.4374 -27.4342 -27.4302
   -27.4213 -27.4086 -27.4019 -27.3932 -27.3836 -27.3797 -27.3677 -27.3528
   -27.3363 -27.3257 -27.3110 -27.2709 -27.2502 -27.2425 -27.2194 -23.7359
   -23.7191 -23.7010 -23.6785 -23.6447 -23.6065  14.2899  15.8950  16.1703
    16.4533  16.5519  16.6095  16.7361  16.8647  16.9531  17.0391  17.1154
    17.1844  17.2356  17.3109  17.3815  17.5594  17.6631  17.7090  17.7830
    17.8787  17.9463  17.9932  18.0231  18.1214  18.1963  18.2488  18.3353
    18.4415  18.4726  18.5079  18.5422  18.6116  18.6976  18.7372  18.8307
    18.9861  19.0084  19.0292  19.0657  19.1285  19.1839  19.2265  19.2501
    19.2767  19.3078  19.3553  19.3633  19.4024  19.5191  19.5847  19.6447
    19.7148  19.7466  19.7750  19.8106  19.8560  19.9026  19.9843  20.2046
    20.3105  20.4237  20.4982  20.5784  20.6305  20.6620  20.6874  20.7642
    20.8473  20.8653  20.8893  20.9287  20.9589  21.0014  21.0488  21.1342
    21.1585  21.2376  21.2741  21.3525  21.4346  21.4910  21.6803  21.8133
    21.8505  21.9293  22.0522  22.0793  22.1011  22.1371  22.1526  22.1834
    22.1985  22.3247  22.3695  22.4069  22.4214  22.4715  22.5148  22.5512
    22.6324  22.6596  22.7353  22.9572  23.0172  23.2789  23.3809  23.5624
    23.5943  23.7100  23.8381  23.9782  24.3274  24.5374  25.8954  26.6995
    26.9663  27.0978  27.3949  28.8625  29.0800  29.4345  29.8144  29.8426
    30.1533  30.2464  30.6668  30.9877  31.2995  31.6581  31.8933  32.2045
    32.9420  33.2635  33.7076  33.7573  33.9021  34.0002  34.0639  34.2445
    34.3733  34.5310  34.8081  35.0585  35.2888  35.4293  35.5065  35.6927
    35.7941  35.8543  35.9727

          k = 0.2593 0.1860 0.2867 ( 40797 PWs)   bands (ev):

   -75.9524 -75.8819 -75.8727 -75.8451 -75.8361 -75.8096 -75.7807 -75.7558
   -75.7531 -75.7449 -75.7415 -61.7014 -61.6861 -61.6767 -61.6616 -61.6409
   -61.6254 -61.5943 -55.8415 -55.8170 -44.3668 -44.3596 -44.3458 -44.3400
   -44.3366 -44.3342 -44.3313 -44.2998 -44.2945 -44.2884 -44.2832 -44.2806
   -44.2711 -44.2681 -44.2674 -44.2632 -44.2625 -44.2592 -44.2571 -44.2549
   -44.2541 -44.2492 -44.2471 -44.2444 -44.2426 -44.2412 -44.2290 -44.2281
   -44.2235 -44.2222 -44.2189 -44.2174 -44.2101 -44.2100 -44.2089 -44.2068
   -44.2060 -44.2041 -44.1927 -44.1912 -44.1870 -44.1849 -44.1799 -44.1757
   -44.1734 -44.1712 -44.1677 -44.1649 -44.1609 -44.1604 -44.1597 -44.1583
   -44.1570 -44.1549 -44.1540 -44.1531 -44.1529 -44.1493 -44.1451 -44.1391
   -44.1356 -44.1341 -44.1338 -44.1281 -44.1281 -44.1264 -44.1247 -44.1230
   -44.1212 -44.1207 -44.1206 -44.1170 -44.1164 -44.1155 -44.1151 -44.1131
   -44.1082 -30.1837 -30.1434 -30.1089 -30.0886 -30.0781 -30.0688 -30.0387
   -30.0239 -30.0108 -30.0010 -29.9816 -29.9681 -29.9504 -29.9331 -29.9287
   -29.9239 -29.9117 -29.9022 -29.8981 -29.8886 -29.8731 -29.8634 -29.8578
   -29.8487 -29.8365 -29.8332 -29.8281 -29.8200 -29.8147 -29.8102 -29.7981
   -29.7926 -29.7845 -27.4601 -27.4498 -27.4458 -27.4364 -27.4358 -27.4312
   -27.4217 -27.4091 -27.4031 -27.3916 -27.3840 -27.3767 -27.3676 -27.3523
   -27.3346 -27.3247 -27.3119 -27.2644 -27.2555 -27.2483 -27.2172 -23.7359
   -23.7191 -23.7010 -23.6785 -23.6447 -23.6065  14.7655  15.3620  16.0471
    16.3050  16.5194  16.6123  16.7583  16.8543  16.9386  17.0362  17.1240
    17.1629  17.2167  17.2958  17.4648  17.4951  17.5344  17.6262  17.8264
    17.8780  17.9059  18.0626  18.1393  18.2056  18.2246  18.3028  18.4397
    18.4575  18.5041  18.5508  18.5863  18.6155  18.6314  18.7473  18.8353
    18.8914  18.9645  18.9719  19.0175  19.0788  19.1312  19.1451  19.1793
    19.3206  19.3631  19.4201  19.4509  19.5375  19.6008  19.6982  19.8121
    19.8254  19.8747  19.9106  19.9490  19.9639  19.9967  20.0669  20.0970
    20.1636  20.1731  20.2058  20.3095  20.4161  20.5744  20.6572  20.7010
    20.7996  20.8694  20.8820  20.9629  21.0691  21.1072  21.1403  21.1814
    21.2299  21.2492  21.3685  21.4874  21.5191  21.6151  21.6391  21.7421
    21.8127  21.9677  22.0022  22.0249  22.0592  22.0747  22.1356  22.1685
    22.1990  22.2563  22.3294  22.3398  22.3590  22.4457  22.4997  22.5522
    22.6046  22.6667  22.8210  22.8734  22.9077  22.9605  22.9979  23.0307
    23.2880  24.0907  24.2861  24.9293  25.7603  26.0515  26.1939  26.2506
    26.3646  26.8162  27.2252  27.3257  27.6945  28.9285  29.3835  29.5862
    30.3945  31.2993  31.3906  31.6139  31.9517  32.0735  32.1802  32.3472
    32.4834  32.6321  32.8683  33.0431  33.1276  33.7433  33.9437  34.1497
    34.3985  34.6576  34.7418  35.1413  35.2014  35.3795  35.4569  35.6672
    35.8196  36.2036  36.4716

          k = 0.1481 0.0237-0.2867 ( 40807 PWs)   bands (ev):

   -75.9524 -75.8819 -75.8727 -75.8451 -75.8361 -75.8096 -75.7807 -75.7558
   -75.7531 -75.7449 -75.7415 -61.7014 -61.6861 -61.6767 -61.6615 -61.6410
   -61.6255 -61.5943 -55.8415 -55.8170 -44.3668 -44.3596 -44.3458 -44.3400
   -44.3366 -44.3342 -44.3313 -44.2998 -44.2945 -44.2884 -44.2832 -44.2806
   -44.2711 -44.2681 -44.2674 -44.2632 -44.2625 -44.2592 -44.2571 -44.2549
   -44.2541 -44.2492 -44.2471 -44.2444 -44.2426 -44.2412 -44.2290 -44.2281
   -44.2235 -44.2222 -44.2189 -44.2174 -44.2101 -44.2100 -44.2089 -44.2068
   -44.2060 -44.2041 -44.1927 -44.1912 -44.1870 -44.1849 -44.1799 -44.1757
   -44.1734 -44.1712 -44.1677 -44.1649 -44.1609 -44.1604 -44.1597 -44.1583
   -44.1570 -44.1549 -44.1540 -44.1531 -44.1529 -44.1493 -44.1451 -44.1391
   -44.1356 -44.1341 -44.1338 -44.1281 -44.1281 -44.1264 -44.1247 -44.1230
   -44.1212 -44.1207 -44.1206 -44.1170 -44.1164 -44.1155 -44.1151 -44.1131
   -44.1082 -30.1846 -30.1451 -30.1061 -30.0883 -30.0748 -30.0690 -30.0398
   -30.0272 -30.0132 -29.9990 -29.9769 -29.9704 -29.9490 -29.9328 -29.9279
   -29.9248 -29.9142 -29.9059 -29.8988 -29.8820 -29.8758 -29.8656 -29.8565
   -29.8481 -29.8366 -29.8330 -29.8284 -29.8208 -29.8123 -29.8109 -29.7982
   -29.7926 -29.7844 -27.4602 -27.4499 -27.4462 -27.4391 -27.4354 -27.4297
   -27.4195 -27.4085 -27.4050 -27.3950 -27.3830 -27.3752 -27.3655 -27.3495
   -27.3365 -27.3256 -27.3047 -27.2826 -27.2510 -27.2439 -27.2160 -23.7359
   -23.7191 -23.7010 -23.6785 -23.6447 -23.6065  14.4439  15.8117  16.3176
    16.4364  16.5278  16.6618  16.7602  16.8269  16.9358  16.9741  17.0299
    17.2002  17.2542  17.3110  17.3213  17.4211  17.4574  17.7034  17.8070
    17.8244  17.9078  17.9602  17.9955  18.0202  18.1403  18.2039  18.3341
    18.3808  18.5066  18.5452  18.6352  18.6435  18.6858  18.7693  18.8410
    18.8761  18.9158  18.9915  19.0756  19.1484  19.1534  19.2007  19.3186
    19.3791  19.4297  19.4769  19.5007  19.5349  19.6208  19.6783  19.6903
    19.7422  19.8055  19.8446  19.8757  19.8875  19.9841  19.9935  20.0914
    20.2694  20.3002  20.6070  20.6632  20.6970  20.7116  20.7298  20.8140
    20.8539  20.8949  20.9172  20.9575  20.9877  21.0273  21.0560  21.1045
    21.1574  21.1784  21.2139  21.2759  21.4738  21.5008  21.5905  21.6435
    21.7513  21.7743  21.8449  21.8715  22.0061  22.0513  22.1277  22.1420
    22.1751  22.2267  22.2503  22.2986  22.3117  22.3729  22.4530  22.4809
    22.5779  22.6865  22.7254  22.9103  22.9301  22.9847  23.0201  23.1038
    23.4221  24.6549  24.7728  24.8899  24.9742  26.0937  26.2726  26.6587
    26.7398  27.0103  27.1618  28.2352  28.6704  28.8396  29.2525  29.7227
    29.9302  30.2928  30.4318  30.7488  31.0635  31.5587  31.7657  32.1091
    32.4750  32.9513  33.4452  33.5786  33.6492  33.7277  33.9517  34.3149
    34.6021  34.7251  34.9006  35.0471  35.0997  35.1951  35.2126  35.5984
    35.8153  35.8401  36.1305

          k = 0.1852 0.0778-0.0956 ( 40823 PWs)   bands (ev):

   -75.9524 -75.8819 -75.8727 -75.8451 -75.8361 -75.8096 -75.7807 -75.7558
   -75.7530 -75.7450 -75.7415 -61.7014 -61.6861 -61.6767 -61.6615 -61.6409
   -61.6254 -61.5943 -55.8415 -55.8170 -44.3668 -44.3596 -44.3458 -44.3400
   -44.3366 -44.3342 -44.3313 -44.2998 -44.2945 -44.2884 -44.2832 -44.2806
   -44.2711 -44.2681 -44.2674 -44.2632 -44.2625 -44.2592 -44.2571 -44.2549
   -44.2541 -44.2492 -44.2471 -44.2444 -44.2426 -44.2412 -44.2290 -44.2281
   -44.2235 -44.2222 -44.2189 -44.2174 -44.2101 -44.2100 -44.2089 -44.2068
   -44.2060 -44.2041 -44.1927 -44.1912 -44.1870 -44.1849 -44.1799 -44.1757
   -44.1734 -44.1712 -44.1677 -44.1649 -44.1609 -44.1604 -44.1597 -44.1583
   -44.1570 -44.1549 -44.1540 -44.1531 -44.1529 -44.1493 -44.1451 -44.1391
   -44.1356 -44.1341 -44.1338 -44.1281 -44.1281 -44.1264 -44.1247 -44.1230
   -44.1212 -44.1207 -44.1206 -44.1170 -44.1164 -44.1155 -44.1151 -44.1131
   -44.1082 -30.1835 -30.1433 -30.1036 -30.0871 -30.0731 -30.0692 -30.0367
   -30.0281 -30.0148 -29.9987 -29.9851 -29.9699 -29.9509 -29.9390 -29.9305
   -29.9273 -29.9166 -29.9107 -29.9011 -29.8789 -29.8660 -29.8608 -29.8530
   -29.8459 -29.8383 -29.8359 -29.8261 -29.8207 -29.8122 -29.8106 -29.7984
   -29.7924 -29.7847 -27.4593 -27.4502 -27.4462 -27.4389 -27.4351 -27.4287
   -27.4189 -27.4075 -27.4054 -27.3978 -27.3800 -27.3758 -27.3681 -27.3510
   -27.3381 -27.3257 -27.3036 -27.2855 -27.2499 -27.2382 -27.2180 -23.7359
   -23.7191 -23.7010 -23.6785 -23.6447 -23.6065  14.1439  16.0945  16.4723
    16.5117  16.5950  16.6972  16.8295  16.8761  16.9963  17.1265  17.1921
    17.2340  17.2926  17.3158  17.3790  17.4087  17.4809  17.5115  17.5776
    17.6454  17.7608  17.8644  17.9088  17.9449  18.0269  18.2499  18.3315
    18.3598  18.4078  18.4876  18.5525  18.5985  18.6595  18.8256  19.0057
    19.0393  19.0921  19.1483  19.1667  19.2333  19.2663  19.3056  19.3266
    19.3648  19.4063  19.4183  19.4831  19.5680  19.6068  19.6462  19.6972
    19.7359  19.7540  19.7992  19.8397  19.8795  19.9571  20.1049  20.1469
    20.2603  20.3266  20.4064  20.4702  20.5507  20.5714  20.6043  20.6399
    20.6625  20.8291  20.8882  21.0322  21.0739  21.0913  21.1192  21.1455
    21.1543  21.2091  21.2675  21.3233  21.3582  21.3992  21.5361  21.5671
    21.6306  21.7414  21.8143  21.9408  21.9950  22.0967  22.1442  22.1972
    22.2012  22.3563  22.3870  22.3961  22.5067  22.6013  22.6289  22.7280
    22.7726  22.8206  22.8572  22.8774  22.9792  23.0161  23.0231  23.1032
    23.3339  23.9338  24.3304  24.5791  24.6917  25.1572  25.6206  26.2340
    27.3900  28.0172  28.0797  28.5647  28.6619  28.7776  29.2581  29.9938
    30.5793  30.8211  30.9007  30.9858  31.1124  31.2730  31.7446  31.9883
    32.1621  32.4935  32.6621  33.1903  33.3670  33.5970  33.6587  34.2943
    34.3617  34.9534  35.1595  35.2250  35.2976  35.4526  35.5272  35.7747
    36.0706  36.3402  36.6342

          k = 0.2223 0.3202 0.0956 ( 40790 PWs)   bands (ev):

   -75.9524 -75.8819 -75.8727 -75.8450 -75.8361 -75.8096 -75.7807 -75.7558
   -75.7530 -75.7450 -75.7415 -61.7014 -61.6862 -61.6767 -61.6616 -61.6409
   -61.6254 -61.5943 -55.8415 -55.8170 -44.3668 -44.3596 -44.3458 -44.3400
   -44.3366 -44.3342 -44.3313 -44.2998 -44.2945 -44.2884 -44.2832 -44.2806
   -44.2711 -44.2681 -44.2674 -44.2632 -44.2625 -44.2592 -44.2571 -44.2549
   -44.2541 -44.2492 -44.2471 -44.2444 -44.2426 -44.2412 -44.2290 -44.2281
   -44.2235 -44.2222 -44.2189 -44.2174 -44.2101 -44.2100 -44.2089 -44.2068
   -44.2060 -44.2041 -44.1927 -44.1912 -44.1870 -44.1849 -44.1799 -44.1757
   -44.1734 -44.1712 -44.1677 -44.1649 -44.1609 -44.1604 -44.1597 -44.1583
   -44.1570 -44.1549 -44.1540 -44.1531 -44.1529 -44.1493 -44.1451 -44.1391
   -44.1356 -44.1341 -44.1338 -44.1281 -44.1281 -44.1264 -44.1247 -44.1230
   -44.1212 -44.1207 -44.1206 -44.1170 -44.1164 -44.1155 -44.1151 -44.1131
   -44.1082 -30.1774 -30.1458 -30.1081 -30.0867 -30.0800 -30.0674 -30.0440
   -30.0215 -30.0097 -29.9944 -29.9860 -29.9722 -29.9554 -29.9347 -29.9302
   -29.9251 -29.9156 -29.9103 -29.9030 -29.8832 -29.8639 -29.8583 -29.8516
   -29.8483 -29.8385 -29.8353 -29.8274 -29.8198 -29.8134 -29.8095 -29.7987
   -29.7934 -29.7846 -27.4584 -27.4490 -27.4476 -27.4373 -27.4349 -27.4312
   -27.4198 -27.4087 -27.4043 -27.3942 -27.3810 -27.3775 -27.3680 -27.3532
   -27.3367 -27.3252 -27.3130 -27.2642 -27.2577 -27.2416 -27.2185 -23.7359
   -23.7191 -23.7010 -23.6785 -23.6447 -23.6065  14.7316  15.1521  16.0903
    16.4417  16.6197  16.7233  16.7872  17.0053  17.0861  17.1258  17.1708
    17.2425  17.3234  17.3615  17.4538  17.4901  17.5105  17.5566  17.6700
    17.7120  17.7640  17.8371  17.8932  17.9394  18.0286  18.1330  18.1932
    18.3452  18.4442  18.4786  18.5934  18.7653  18.8089  18.8840  18.9805
    19.0777  19.1763  19.2577  19.2715  19.3047  19.3309  19.3660  19.4373
    19.4712  19.5149  19.5462  19.5951  19.6324  19.6932  19.7085  19.7307
    19.7679  19.7951  19.8326  19.8855  19.9261  19.9675  20.0036  20.0383
    20.0446  20.0855  20.1026  20.1203  20.1743  20.2416  20.2949  20.7807
    20.8208  20.8358  20.8598  20.8900  20.9227  20.9571  20.9816  21.0508
    21.0797  21.1633  21.2429  21.3524  21.3824  21.4539  21.5249  21.6377
    21.8687  22.1132  22.1485  22.1771  22.2075  22.2512  22.2721  22.3137
    22.3468  22.3686  22.4232  22.4320  22.4564  22.4831  22.5157  22.5421
    22.5462  22.6035  22.6579  22.7302  22.7523  22.8337  22.8576  22.9506
    24.6406  24.7190  24.7666  24.9461  25.0235  25.1611  25.3034  26.1144
    27.1879  27.3791  27.6232  27.9659  28.3518  28.6527  28.9539  29.1726
    29.6260  29.7757  30.9347  31.3877  31.6178  31.9373  32.1678  32.6042
    32.7634  33.1057  33.2351  33.4777  33.7888  33.8990  34.0551  34.1721
    34.7699  35.0102  35.1686  35.3247  35.4439  35.6384  35.7681  35.8340
    35.9299  36.0074  36.1817

          k = 0.2593 0.3743 0.2867 ( 40762 PWs)   bands (ev):

   -75.9524 -75.8819 -75.8727 -75.8451 -75.8361 -75.8096 -75.7807 -75.7558
   -75.7531 -75.7449 -75.7415 -61.7013 -61.6862 -61.6767 -61.6615 -61.6410
   -61.6255 -61.5943 -55.8415 -55.8170 -44.3668 -44.3596 -44.3458 -44.3400
   -44.3366 -44.3342 -44.3313 -44.2998 -44.2945 -44.2884 -44.2832 -44.2806
   -44.2711 -44.2681 -44.2674 -44.2632 -44.2625 -44.2592 -44.2571 -44.2549
   -44.2541 -44.2492 -44.2471 -44.2444 -44.2426 -44.2412 -44.2290 -44.2281
   -44.2235 -44.2222 -44.2189 -44.2174 -44.2101 -44.2100 -44.2089 -44.2068
   -44.2060 -44.2041 -44.1927 -44.1912 -44.1870 -44.1849 -44.1799 -44.1757
   -44.1734 -44.1712 -44.1677 -44.1649 -44.1609 -44.1604 -44.1597 -44.1583
   -44.1570 -44.1549 -44.1540 -44.1531 -44.1529 -44.1493 -44.1451 -44.1391
   -44.1356 -44.1341 -44.1338 -44.1281 -44.1281 -44.1264 -44.1247 -44.1230
   -44.1212 -44.1207 -44.1206 -44.1170 -44.1164 -44.1155 -44.1151 -44.1131
   -44.1082 -30.1802 -30.1463 -30.1099 -30.0908 -30.0767 -30.0679 -30.0470
   -30.0201 -30.0093 -29.9992 -29.9780 -29.9671 -29.9510 -29.9302 -29.9288
   -29.9252 -29.9135 -29.9026 -29.9005 -29.8892 -29.8742 -29.8643 -29.8540
   -29.8502 -29.8376 -29.8321 -29.8278 -29.8195 -29.8140 -29.8089 -29.7990
   -29.7935 -29.7848 -27.4597 -27.4493 -27.4471 -27.4396 -27.4343 -27.4304
   -27.4193 -27.4084 -27.4063 -27.3936 -27.3845 -27.3740 -27.3658 -27.3501
   -27.3367 -27.3251 -27.3052 -27.2805 -27.2528 -27.2429 -27.2164 -23.7359
   -23.7191 -23.7010 -23.6785 -23.6447 -23.6065  15.0552  15.3919  15.6354
    16.3194  16.4577  16.7982  16.8767  16.9975  17.0240  17.1591  17.1968
    17.2563  17.3042  17.3475  17.4023  17.4461  17.5077  17.5934  17.6317
    17.6528  17.7420  17.7519  17.7775  17.8431  17.9599  18.0368  18.0889
    18.4818  18.5542  18.5896  18.6464  18.6680  18.7712  18.8453  18.8884
    18.9022  19.0459  19.0751  19.1948  19.3267  19.4786  19.4942  19.5384
    19.5666  19.6176  19.6570  19.6716  19.6959  19.7137  19.7686  19.8027
    19.8389  19.8809  19.9013  19.9335  19.9714  20.0007  20.0768  20.1207
    20.1402  20.1711  20.2265  20.2524  20.3751  20.4006  20.4203  20.4486
    20.4731  20.5153  20.5314  20.6000  20.7753  20.9003  20.9211  21.2267
    21.3128  21.4071  21.4584  21.5381  21.5704  21.5933  21.6500  21.7108
    21.7861  21.8560  21.9136  21.9742  22.0013  22.0450  22.1199  22.2564
    22.3101  22.3155  22.3563  22.3844  22.4166  22.4461  22.4591  22.4645
    22.5400  22.5958  22.6287  22.6825  22.8048  22.8499  22.8729  23.7258
    23.8310  24.5662  24.7559  25.8572  26.0411  26.2939  26.3397  26.5612
    26.5999  26.8459  27.1463  27.4065  28.0800  28.5547  28.7439  29.2398
    29.4160  29.5319  30.0129  30.0608  30.6293  31.5724  31.9886  32.6157
    33.0768  33.4210  33.5623  33.7060  33.7770  33.9916  34.1260  34.1692
    34.6720  35.1057  35.4706  35.5351  35.7843  35.9215  35.9622  36.0746
    36.1925  36.4163  36.8009

          k = 0.1481 0.2120-0.2867 ( 40775 PWs)   bands (ev):

   -75.9524 -75.8819 -75.8727 -75.8451 -75.8361 -75.8096 -75.7807 -75.7558
   -75.7531 -75.7449 -75.7415 -61.7013 -61.6862 -61.6767 -61.6615 -61.6409
   -61.6254 -61.5943 -55.8415 -55.8170 -44.3668 -44.3596 -44.3458 -44.3400
   -44.3366 -44.3342 -44.3313 -44.2998 -44.2945 -44.2884 -44.2832 -44.2806
   -44.2711 -44.2681 -44.2674 -44.2632 -44.2625 -44.2592 -44.2571 -44.2549
   -44.2541 -44.2492 -44.2471 -44.2444 -44.2426 -44.2412 -44.2290 -44.2281
   -44.2235 -44.2222 -44.2189 -44.2174 -44.2101 -44.2100 -44.2089 -44.2068
   -44.2060 -44.2041 -44.1927 -44.1912 -44.1870 -44.1849 -44.1799 -44.1757
   -44.1734 -44.1712 -44.1677 -44.1649 -44.1609 -44.1604 -44.1597 -44.1583
   -44.1570 -44.1549 -44.1540 -44.1531 -44.1529 -44.1493 -44.1451 -44.1391
   -44.1356 -44.1341 -44.1338 -44.1281 -44.1281 -44.1264 -44.1247 -44.1230
   -44.1212 -44.1207 -44.1206 -44.1170 -44.1164 -44.1155 -44.1151 -44.1131
   -44.1082 -30.1799 -30.1466 -30.1099 -30.0907 -30.0764 -30.0683 -30.0459
   -30.0194 -30.0116 -30.0000 -29.9763 -29.9659 -29.9537 -29.9329 -29.9285
   -29.9247 -29.9145 -29.9034 -29.8954 -29.8836 -29.8778 -29.8648 -29.8550
   -29.8495 -29.8392 -29.8314 -29.8265 -29.8215 -29.8142 -29.8090 -29.7989
   -29.7934 -29.7845 -27.4594 -27.4494 -27.4474 -27.4392 -27.4353 -27.4290
   -27.4203 -27.4076 -27.4055 -27.3941 -27.3839 -27.3751 -27.3674 -27.3506
   -27.3362 -27.3252 -27.3001 -27.2859 -27.2504 -27.2422 -27.2176 -23.7359
   -23.7191 -23.7010 -23.6785 -23.6447 -23.6065  14.6857  15.6244  16.0154
    16.3351  16.5853  16.9037  16.9349  16.9756  17.0331  17.0760  17.1548
    17.1992  17.2154  17.2842  17.3254  17.4330  17.5005  17.5455  17.6178
    17.6495  17.6897  17.7291  17.7553  17.8675  17.9247  18.1555  18.3011
    18.3349  18.4580  18.4861  18.7298  18.7707  18.8184  18.8467  18.8830
    18.9115  18.9475  19.0293  19.1330  19.2351  19.3466  19.4075  19.4530
    19.4994  19.5920  19.6230  19.6985  19.7335  19.7659  19.8202  19.8314
    19.8427  19.8935  19.9570  19.9808  20.0026  20.0118  20.0449  20.0971
    20.1663  20.1973  20.2198  20.2785  20.3001  20.3097  20.3862  20.5646
    20.6601  20.7056  20.8022  20.8340  20.8581  20.8817  20.9146  20.9682
    20.9959  21.1046  21.1709  21.3578  21.4349  21.4723  21.6094  21.8482
    21.8867  21.9303  21.9678  22.0236  22.1472  22.1724  22.2402  22.2634
    22.3456  22.3731  22.4228  22.4626  22.4983  22.5236  22.5410  22.5708
    22.6286  22.6649  22.7168  22.7578  22.7762  22.9298  23.0325  23.0916
    23.1617  24.4246  24.9356  25.4106  25.9412  26.0091  26.1488  26.2069
    27.7915  27.8772  27.9098  28.0795  28.1591  28.4454  28.7279  28.9623
    29.1637  29.4070  29.7183  30.4409  30.7910  31.0218  31.6029  31.9470
    32.5018  32.7204  32.9966  33.3531  33.5639  33.6795  33.8373  34.0234
    34.6308  35.0367  35.5777  35.7423  35.8311  36.0463  36.5203  36.5798
    36.6528  36.7515  36.8092

          k = 0.1852 0.2661-0.0956 ( 40824 PWs)   bands (ev):

   -75.9524 -75.8819 -75.8727 -75.8450 -75.8361 -75.8096 -75.7807 -75.7558
   -75.7530 -75.7450 -75.7415 -61.7014 -61.6862 -61.6767 -61.6616 -61.6409
   -61.6254 -61.5943 -55.8415 -55.8170 -44.3668 -44.3596 -44.3458 -44.3400
   -44.3366 -44.3342 -44.3313 -44.2998 -44.2945 -44.2884 -44.2832 -44.2806
   -44.2711 -44.2681 -44.2674 -44.2632 -44.2625 -44.2592 -44.2571 -44.2549
   -44.2541 -44.2492 -44.2471 -44.2444 -44.2426 -44.2412 -44.2290 -44.2281
   -44.2235 -44.2222 -44.2189 -44.2174 -44.2101 -44.2100 -44.2089 -44.2068
   -44.2060 -44.2041 -44.1927 -44.1912 -44.1870 -44.1849 -44.1799 -44.1757
   -44.1734 -44.1712 -44.1677 -44.1649 -44.1609 -44.1604 -44.1597 -44.1583
   -44.1570 -44.1549 -44.1540 -44.1531 -44.1529 -44.1493 -44.1451 -44.1391
   -44.1356 -44.1341 -44.1338 -44.1281 -44.1281 -44.1264 -44.1247 -44.1230
   -44.1212 -44.1207 -44.1206 -44.1170 -44.1164 -44.1155 -44.1151 -44.1131
   -44.1082 -30.1770 -30.1461 -30.1084 -30.0859 -30.0813 -30.0665 -30.0418
   -30.0212 -30.0141 -29.9963 -29.9836 -29.9681 -29.9586 -29.9379 -29.9308
   -29.9252 -29.9152 -29.9078 -29.9021 -29.8795 -29.8670 -29.8582 -29.8520
   -29.8464 -29.8403 -29.8344 -29.8263 -29.8221 -29.8133 -29.8097 -29.7986
   -29.7933 -29.7843 -27.4581 -27.4489 -27.4480 -27.4378 -27.4345 -27.4301
   -27.4210 -27.4083 -27.4027 -27.3933 -27.3829 -27.3793 -27.3682 -27.3532
   -27.3365 -27.3257 -27.3102 -27.2702 -27.2521 -27.2407 -27.2201 -23.7359
   -23.7191 -23.7010 -23.6785 -23.6447 -23.6065  14.5056  15.3030  16.3239
    16.5747  16.7799  16.8225  16.8553  16.9556  17.0155  17.0639  17.1973
    17.2456  17.2805  17.3367  17.3950  17.4743  17.4950  17.5656  17.6371
    17.6822  17.7132  17.7445  17.7629  17.9225  17.9682  18.0657  18.0990
    18.1178  18.5363  18.7033  18.8166  18.8455  18.8975  18.9836  19.0405
    19.0592  19.1083  19.1987  19.2603  19.2737  19.3029  19.3303  19.3485
    19.3565  19.4286  19.4837  19.5169  19.5965  19.6517  19.6690  19.8060
    19.8531  19.8908  19.9149  19.9451  19.9901  20.0212  20.0539  20.0736
    20.0913  20.1164  20.1372  20.1578  20.2055  20.2833  20.4006  20.4394
    20.4461  20.5125  20.5388  20.5700  20.8166  21.1188  21.2092  21.2192
    21.3637  21.4094  21.4470  21.4769  21.4976  21.5520  21.6047  21.6514
    21.7757  21.8763  21.9036  21.9270  21.9712  22.0669  22.3065  22.3381
    22.3504  22.3920  22.4292  22.4640  22.4975  22.5341  22.5539  22.6162
    22.6510  22.6815  22.7359  22.7654  22.8290  22.9087  23.0398  23.7702
    23.8780  23.9908  24.0795  24.3603  25.4871  25.7640  26.2863  26.4277
    26.5616  26.7607  28.0307  28.5138  29.0009  29.3345  29.4784  29.5517
    29.6672  29.7254  30.1457  30.7737  31.2651  31.6446  32.0029  32.1013
    32.2203  32.4560  32.8095  33.3886  33.7072  33.8005  33.8956  34.0611
    34.1781  34.3932  34.9096  35.0980  35.1732  35.6895  35.9630  36.0847
    36.1746  36.7449  36.9517

          k = 0.2223-0.2447 0.0956 ( 40775 PWs)   bands (ev):

   -75.9524 -75.8819 -75.8727 -75.8450 -75.8361 -75.8096 -75.7807 -75.7558
   -75.7530 -75.7450 -75.7415 -61.7014 -61.6862 -61.6767 -61.6615 -61.6409
   -61.6255 -61.5943 -55.8415 -55.8170 -44.3668 -44.3596 -44.3458 -44.3400
   -44.3366 -44.3342 -44.3313 -44.2998 -44.2945 -44.2884 -44.2832 -44.2806
   -44.2711 -44.2681 -44.2674 -44.2632 -44.2625 -44.2592 -44.2571 -44.2549
   -44.2541 -44.2492 -44.2471 -44.2444 -44.2426 -44.2412 -44.2290 -44.2281
   -44.2235 -44.2222 -44.2189 -44.2174 -44.2101 -44.2100 -44.2089 -44.2068
   -44.2060 -44.2041 -44.1927 -44.1912 -44.1870 -44.1849 -44.1799 -44.1757
   -44.1734 -44.1712 -44.1677 -44.1649 -44.1609 -44.1604 -44.1597 -44.1583
   -44.1570 -44.1549 -44.1540 -44.1531 -44.1529 -44.1493 -44.1451 -44.1391
   -44.1356 -44.1341 -44.1338 -44.1281 -44.1281 -44.1264 -44.1247 -44.1230
   -44.1212 -44.1207 -44.1206 -44.1170 -44.1164 -44.1155 -44.1151 -44.1131
   -44.1082 -30.1817 -30.1438 -30.1034 -30.0876 -30.0771 -30.0665 -30.0516
   -30.0238 -30.0055 -29.9912 -29.9856 -29.9652 -29.9594 -29.9370 -29.9298
   -29.9245 -29.9185 -29.9131 -29.9014 -29.8841 -29.8650 -29.8591 -29.8547
   -29.8453 -29.8395 -29.8370 -29.8279 -29.8197 -29.8122 -29.8084 -29.7957
   -29.7934 -29.7846 -27.4592 -27.4496 -27.4467 -27.4402 -27.4336 -27.4300
   -27.4178 -27.4085 -27.4071 -27.3967 -27.3808 -27.3727 -27.3671 -27.3511
   -27.3372 -27.3247 -27.3091 -27.2818 -27.2537 -27.2386 -27.2155 -23.7359
   -23.7191 -23.7010 -23.6785 -23.6447 -23.6065  14.4925  15.4983  16.2322
    16.4763  16.5959  16.6895  16.8153  16.9764  17.1018  17.1496  17.2413
    17.2978  17.3517  17.3891  17.4427  17.4617  17.5291  17.5831  17.5945
    17.6574  17.6834  17.7432  17.7648  17.8603  17.9122  17.9839  18.0867
    18.2033  18.4360  18.5920  18.6748  18.7875  18.8605  18.9256  18.9989
    19.0624  19.1180  19.2134  19.2655  19.3088  19.3966  19.4108  19.4276
    19.5379  19.5591  19.5800  19.5963  19.6616  19.6777  19.7611  19.7712
    19.7925  19.8219  19.8601  19.9166  19.9256  19.9656  20.0017  20.0350
    20.0795  20.1529  20.2001  20.2392  20.2929  20.3120  20.4188  20.4731
    20.5102  20.5955  20.6109  20.6735  20.7720  21.0725  21.1643  21.2147
    21.2561  21.2644  21.3170  21.6078  21.6523  21.6854  21.6947  21.7338
    21.7585  21.7870  21.8538  21.9705  22.0823  22.1101  22.2029  22.2214
    22.2738  22.3672  22.3870  22.4145  22.4510  22.4774  22.5014  22.5117
    22.5678  22.5989  22.6246  22.6893  22.7361  22.8053  22.8545  23.3772
    23.5783  24.1718  25.0730  25.7352  25.8949  26.0922  26.1268  26.6284
    26.7382  26.8516  27.0419  27.6878  27.8714  28.4381  28.6938  29.2390
    29.5405  29.7128  30.0789  31.0006  31.6684  32.1649  32.3915  32.6266
    33.0073  33.1569  33.5748  33.9651  34.0547  34.1828  34.3721  34.4804
    34.6784  34.7894  35.0172  35.1165  35.4177  35.4709  35.5298  35.6589
    35.9561  36.2610  36.3274

          k = 0.2593-0.1906 0.2867 ( 40763 PWs)   bands (ev):

   -75.9524 -75.8819 -75.8727 -75.8451 -75.8361 -75.8096 -75.7807 -75.7558
   -75.7531 -75.7449 -75.7415 -61.7013 -61.6862 -61.6767 -61.6615 -61.6410
   -61.6255 -61.5943 -55.8415 -55.8170 -44.3668 -44.3596 -44.3458 -44.3400
   -44.3366 -44.3342 -44.3313 -44.2998 -44.2945 -44.2884 -44.2832 -44.2806
   -44.2711 -44.2681 -44.2674 -44.2632 -44.2625 -44.2592 -44.2571 -44.2549
   -44.2541 -44.2492 -44.2471 -44.2444 -44.2426 -44.2412 -44.2290 -44.2281
   -44.2235 -44.2222 -44.2189 -44.2174 -44.2101 -44.2100 -44.2089 -44.2068
   -44.2060 -44.2041 -44.1927 -44.1912 -44.1870 -44.1849 -44.1799 -44.1757
   -44.1734 -44.1712 -44.1677 -44.1649 -44.1609 -44.1604 -44.1597 -44.1583
   -44.1570 -44.1549 -44.1540 -44.1531 -44.1529 -44.1493 -44.1451 -44.1391
   -44.1356 -44.1341 -44.1338 -44.1281 -44.1281 -44.1264 -44.1247 -44.1230
   -44.1212 -44.1207 -44.1206 -44.1170 -44.1164 -44.1155 -44.1151 -44.1131
   -44.1082 -30.1826 -30.1448 -30.1068 -30.0904 -30.0780 -30.0709 -30.0457
   -30.0251 -30.0043 -29.9915 -29.9825 -29.9660 -29.9499 -29.9331 -29.9278
   -29.9238 -29.9147 -29.9113 -29.8987 -29.8859 -29.8769 -29.8593 -29.8572
   -29.8474 -29.8391 -29.8326 -29.8305 -29.8208 -29.8133 -29.8088 -29.7953
   -29.7934 -29.7849 -27.4606 -27.4497 -27.4465 -27.4406 -27.4332 -27.4291
   -27.4202 -27.4082 -27.4044 -27.3937 -27.3857 -27.3748 -27.3663 -27.3502
   -27.3351 -27.3253 -27.3015 -27.2869 -27.2529 -27.2409 -27.2161 -23.7359
   -23.7191 -23.7010 -23.6785 -23.6447 -23.6065  14.8196  15.6178  15.8989
    16.3070  16.5399  16.7455  16.8358  16.8677  17.0052  17.1245  17.1765
    17.2474  17.2753  17.3268  17.3637  17.4132  17.4484  17.4999  17.5625
    17.6284  17.6871  17.7794  17.8637  17.8960  17.9705  18.2590  18.2706
    18.3700  18.4609  18.4827  18.7266  18.7724  18.8120  18.8498  18.9345
    18.9462  18.9954  19.0356  19.2256  19.3180  19.4009  19.4335  19.4889
    19.5020  19.5496  19.5873  19.6597  19.7014  19.7266  19.7584  19.8070
    19.8397  19.8915  19.9009  19.9454  19.9624  19.9924  20.0175  20.0593
    20.1221  20.1834  20.2183  20.2614  20.2834  20.4276  20.4607  20.6437
    20.6536  20.6849  20.7536  20.7933  20.8564  20.9284  21.0046  21.0413
    21.0958  21.1383  21.1923  21.2594  21.4467  21.5269  21.5615  21.5858
    21.7665  21.8525  22.0211  22.0855  22.1345  22.2081  22.2562  22.2704
    22.2932  22.3513  22.3814  22.4189  22.4470  22.5097  22.5401  22.5637
    22.5730  22.6263  22.6615  22.7168  22.7590  22.8396  23.1853  23.2551
    24.5024  24.6629  24.9536  25.2273  25.3197  25.6923  25.8254  26.2399
    26.9802  27.5838  27.9566  28.0972  28.2308  28.5648  28.9257  29.0735
    29.2686  29.4194  29.7615  29.9812  30.1873  31.1590  31.9233  32.4149
    32.8415  33.0398  33.2871  33.6013  33.7290  34.1775  34.7409  34.9248
    35.0929  35.1185  35.4522  35.5216  35.8149  35.9431  36.0850  36.1883
    36.2677  36.5112  36.8740

          k = 0.1481-0.3529-0.2867 ( 40807 PWs)   bands (ev):

   -75.9524 -75.8819 -75.8727 -75.8451 -75.8361 -75.8096 -75.7807 -75.7558
   -75.7531 -75.7449 -75.7415 -61.7013 -61.6862 -61.6767 -61.6616 -61.6409
   -61.6255 -61.5943 -55.8415 -55.8170 -44.3668 -44.3596 -44.3458 -44.3400
   -44.3366 -44.3342 -44.3313 -44.2998 -44.2945 -44.2884 -44.2832 -44.2806
   -44.2711 -44.2681 -44.2674 -44.2632 -44.2625 -44.2592 -44.2571 -44.2549
   -44.2541 -44.2492 -44.2471 -44.2444 -44.2426 -44.2412 -44.2290 -44.2281
   -44.2235 -44.2222 -44.2189 -44.2174 -44.2101 -44.2100 -44.2089 -44.2068
   -44.2060 -44.2041 -44.1927 -44.1912 -44.1870 -44.1849 -44.1799 -44.1757
   -44.1734 -44.1712 -44.1677 -44.1649 -44.1609 -44.1604 -44.1597 -44.1583
   -44.1570 -44.1549 -44.1540 -44.1531 -44.1529 -44.1493 -44.1451 -44.1391
   -44.1356 -44.1341 -44.1338 -44.1281 -44.1281 -44.1264 -44.1247 -44.1230
   -44.1212 -44.1207 -44.1206 -44.1170 -44.1164 -44.1155 -44.1151 -44.1131
   -44.1082 -30.1813 -30.1438 -30.1096 -30.0902 -30.0785 -30.0716 -30.0434
   -30.0236 -30.0088 -29.9894 -29.9813 -29.9696 -29.9521 -29.9332 -29.9298
   -29.9237 -29.9143 -29.9061 -29.8932 -29.8852 -29.8782 -29.8619 -29.8545
   -29.8491 -29.8393 -29.8347 -29.8297 -29.8220 -29.8135 -29.8084 -29.7953
   -29.7933 -29.7847 -27.4604 -27.4498 -27.4463 -27.4383 -27.4344 -27.4293
   -27.4218 -27.4085 -27.4030 -27.3904 -27.3858 -27.3770 -27.3686 -27.3530
   -27.3332 -27.3246 -27.3101 -27.2702 -27.2556 -27.2440 -27.2175 -23.7359
   -23.7191 -23.7010 -23.6785 -23.6447 -23.6065  14.9615  15.3091  15.7535
    16.4550  16.6396  16.7135  16.8265  16.9134  17.0308  17.1194  17.1981
    17.2954  17.3304  17.3736  17.4191  17.4568  17.4996  17.5189  17.5830
    17.6682  17.7029  17.7765  17.8672  17.8791  17.9751  18.0365  18.1814
    18.4672  18.5768  18.6215  18.6667  18.7304  18.7652  18.8386  18.8747
    18.9205  19.0168  19.1131  19.1849  19.2530  19.3323  19.3551  19.4188
    19.4395  19.5764  19.6157  19.6515  19.7226  19.7650  19.8036  19.8352
    19.8641  19.8783  19.9164  19.9276  19.9469  20.0075  20.0531  20.0671
    20.1496  20.1720  20.2467  20.2589  20.3150  20.3695  20.3805  20.4392
    20.5042  20.5404  20.5993  20.6441  20.8241  20.8768  21.0073  21.1136
    21.2007  21.3741  21.4293  21.4825  21.5342  21.5520  21.5776  21.6207
    21.7193  21.8180  21.9823  22.0581  22.0851  22.1734  22.2440  22.3165
    22.3445  22.3645  22.3853  22.4189  22.4560  22.4753  22.5273  22.5713
    22.6211  22.6560  22.7011  22.7614  22.8622  22.8827  23.5328  23.6125
    23.8750  24.1493  24.3290  24.7134  25.5318  25.5892  25.9136  26.3346
    27.0169  27.3208  28.2104  28.3813  28.5973  29.1159  29.2915  29.5187
    29.6157  29.7559  30.0842  30.3911  30.6399  31.1661  31.4621  31.9399
    32.2425  32.4451  32.9173  32.9859  33.3662  33.6112  33.6888  33.8505
    34.0963  34.7192  35.3966  35.8835  35.9089  35.9787  36.4924  36.5895
    36.8475  36.9801  37.0789

          k = 0.1852-0.2988-0.0956 ( 40805 PWs)   bands (ev):

   -75.9524 -75.8819 -75.8727 -75.8450 -75.8361 -75.8096 -75.7807 -75.7558
   -75.7530 -75.7450 -75.7415 -61.7014 -61.6861 -61.6767 -61.6615 -61.6409
   -61.6255 -61.5943 -55.8415 -55.8170 -44.3668 -44.3596 -44.3458 -44.3400
   -44.3366 -44.3342 -44.3313 -44.2998 -44.2945 -44.2884 -44.2832 -44.2806
   -44.2711 -44.2681 -44.2674 -44.2632 -44.2625 -44.2592 -44.2571 -44.2549
   -44.2541 -44.2492 -44.2471 -44.2444 -44.2426 -44.2412 -44.2290 -44.2281
   -44.2235 -44.2222 -44.2189 -44.2174 -44.2101 -44.2100 -44.2089 -44.2068
   -44.2060 -44.2041 -44.1927 -44.1912 -44.1870 -44.1849 -44.1799 -44.1757
   -44.1734 -44.1712 -44.1677 -44.1649 -44.1609 -44.1604 -44.1597 -44.1583
   -44.1570 -44.1549 -44.1540 -44.1531 -44.1529 -44.1493 -44.1451 -44.1391
   -44.1356 -44.1341 -44.1338 -44.1281 -44.1281 -44.1264 -44.1247 -44.1230
   -44.1212 -44.1207 -44.1206 -44.1170 -44.1164 -44.1155 -44.1151 -44.1131
   -44.1082 -30.1804 -30.1428 -30.1067 -30.0858 -30.0793 -30.0689 -30.0467
   -30.0226 -30.0104 -29.9877 -29.9838 -29.9703 -29.9625 -29.9366 -29.9292
   -29.9238 -29.9165 -29.9120 -29.8983 -29.8826 -29.8685 -29.8600 -29.8513
   -29.8458 -29.8391 -29.8377 -29.8287 -29.8214 -29.8122 -29.8084 -29.7956
   -29.7933 -29.7844 -27.4592 -27.4498 -27.4465 -27.4379 -27.4351 -27.4303
   -27.4198 -27.4085 -27.4034 -27.3951 -27.3817 -27.3769 -27.3672 -27.3529
   -27.3355 -27.3246 -27.3146 -27.2671 -27.2578 -27.2411 -27.2170 -23.7359
   -23.7191 -23.7010 -23.6785 -23.6447 -23.6065  14.5639  15.2335  16.2865
    16.4801  16.6397  16.6701  16.9164  17.0369  17.1229  17.1459  17.2117
    17.2486  17.2839  17.4329  17.4576  17.4734  17.5322  17.6244  17.6596
    17.7004  17.7448  17.7689  17.8375  17.8806  17.9647  18.0736  18.1285
    18.2221  18.4055  18.5290  18.6004  18.7249  18.7810  18.8141  18.9345
    19.0479  19.1007  19.2421  19.2812  19.3042  19.3429  19.3593  19.3966
    19.4265  19.5133  19.5421  19.6240  19.6739  19.7288  19.7427  19.7741
    19.8241  19.8396  19.8537  19.8858  19.9223  19.9811  20.0158  20.0537
    20.0948  20.1271  20.1874  20.2158  20.2313  20.3066  20.3736  20.4419
    20.5761  20.6946  20.7903  20.8413  20.8744  20.9278  21.0073  21.0643
    21.0892  21.3043  21.3156  21.4373  21.4907  21.5982  21.6615  21.7817
    21.9474  21.9998  22.0737  22.1021  22.1910  22.2163  22.2667  22.2687
    22.3156  22.3657  22.3792  22.4021  22.4773  22.5045  22.5413  22.5793
    22.5977  22.6345  22.6587  22.7111  22.7503  22.7939  22.9136  23.2772
    23.3279  23.9640  24.5249  25.1864  25.3917  25.6843  26.1845  26.3946
    27.1894  27.4755  27.5899  28.0925  28.2164  28.5148  28.8509  29.5292
    30.1097  30.1785  30.8187  31.2019  31.4239  31.9439  32.0282  32.4171
    32.5436  32.7257  32.9480  33.2252  33.3552  33.5165  33.8185  33.9706
    34.0964  34.4885  34.6433  35.2416  35.2989  35.6018  35.7217  35.8676
    36.1082  36.3096  36.5603

          k = 0.2223-0.0564 0.0956 ( 40800 PWs)   bands (ev):

   -75.9524 -75.8819 -75.8727 -75.8450 -75.8361 -75.8096 -75.7807 -75.7558
   -75.7530 -75.7450 -75.7415 -61.7014 -61.6861 -61.6767 -61.6615 -61.6409
   -61.6255 -61.5943 -55.8415 -55.8170 -44.3668 -44.3596 -44.3458 -44.3400
   -44.3366 -44.3342 -44.3313 -44.2998 -44.2945 -44.2884 -44.2832 -44.2806
   -44.2711 -44.2681 -44.2674 -44.2632 -44.2625 -44.2592 -44.2571 -44.2549
   -44.2541 -44.2492 -44.2471 -44.2444 -44.2426 -44.2412 -44.2290 -44.2281
   -44.2235 -44.2222 -44.2189 -44.2174 -44.2101 -44.2100 -44.2089 -44.2068
   -44.2060 -44.2041 -44.1927 -44.1912 -44.1870 -44.1849 -44.1799 -44.1757
   -44.1734 -44.1712 -44.1677 -44.1649 -44.1609 -44.1604 -44.1597 -44.1583
   -44.1570 -44.1549 -44.1540 -44.1531 -44.1529 -44.1493 -44.1451 -44.1391
   -44.1356 -44.1341 -44.1338 -44.1281 -44.1281 -44.1264 -44.1247 -44.1230
   -44.1212 -44.1207 -44.1206 -44.1170 -44.1164 -44.1155 -44.1151 -44.1131
   -44.1082 -30.1858 -30.1414 -30.1017 -30.0852 -30.0750 -30.0694 -30.0463
   -30.0278 -30.0056 -29.9934 -29.9863 -29.9692 -29.9548 -29.9367 -29.9310
   -29.9264 -29.9181 -29.9126 -29.9020 -29.8793 -29.8691 -29.8621 -29.8518
   -29.8442 -29.8395 -29.8366 -29.8275 -29.8193 -29.8122 -29.8107 -29.7955
   -29.7921 -29.7848 -27.4599 -27.4503 -27.4455 -27.4402 -27.4336 -27.4290
   -27.4194 -27.4080 -27.4040 -27.3978 -27.3813 -27.3755 -27.3672 -27.3501
   -27.3369 -27.3260 -27.3050 -27.2862 -27.2517 -27.2380 -27.2163 -23.7359
   -23.7191 -23.7010 -23.6785 -23.6447 -23.6065  14.2010  16.1452  16.4379
    16.4677  16.5201  16.5972  16.7345  16.8101  16.9029  17.0274  17.1141
    17.1811  17.2295  17.3195  17.4319  17.5167  17.5691  17.6480  17.7088
    17.8129  17.8723  17.9833  18.0334  18.0840  18.1324  18.2004  18.2493
    18.3439  18.4081  18.4710  18.5444  18.6039  18.6644  18.7456  18.9120
    18.9752  19.0130  19.0360  19.0780  19.1091  19.1461  19.1807  19.2683
    19.3708  19.4045  19.4797  19.5172  19.5632  19.5692  19.6366  19.6768
    19.7005  19.7405  19.8123  19.8582  19.9141  19.9641  19.9768  20.0853
    20.2843  20.3345  20.4157  20.4574  20.5035  20.5595  20.6547  20.8750
    20.9223  20.9694  20.9827  21.0160  21.0357  21.0658  21.1182  21.1385
    21.1985  21.2330  21.2734  21.3163  21.3791  21.4364  21.5052  21.6659
    21.6750  21.9699  22.0795  22.0956  22.1698  22.2058  22.2366  22.2646
    22.2958  22.3246  22.3429  22.3998  22.4110  22.4385  22.4966  22.5604
    22.6202  22.6746  22.7453  22.8054  22.8870  22.9779  23.0103  23.0896
    23.2016  23.9196  24.1141  24.5734  24.8105  25.2699  26.4472  26.6454
    26.7710  27.1122  27.4291  28.3102  28.7133  29.0281  29.4340  29.5183
    30.0230  30.2750  30.5470  31.0313  31.6808  31.7986  31.9264  32.0389
    33.0994  33.2452  33.5549  33.6326  33.9290  34.0957  34.3527  34.4717
    34.6280  34.6765  35.1297  35.1914  35.2249  35.4038  35.5628  35.5775
    35.7044  36.0453  36.1508

          k = 0.2593-0.0023 0.2867 ( 40818 PWs)   bands (ev):

   -75.9524 -75.8819 -75.8727 -75.8451 -75.8361 -75.8096 -75.7807 -75.7558
   -75.7531 -75.7449 -75.7415 -61.7014 -61.6861 -61.6767 -61.6616 -61.6409
   -61.6255 -61.5943 -55.8415 -55.8170 -44.3668 -44.3596 -44.3458 -44.3400
   -44.3366 -44.3342 -44.3313 -44.2998 -44.2945 -44.2884 -44.2832 -44.2806
   -44.2711 -44.2681 -44.2674 -44.2632 -44.2625 -44.2592 -44.2571 -44.2549
   -44.2541 -44.2492 -44.2471 -44.2444 -44.2426 -44.2412 -44.2290 -44.2281
   -44.2235 -44.2222 -44.2189 -44.2174 -44.2101 -44.2100 -44.2089 -44.2068
   -44.2060 -44.2041 -44.1927 -44.1912 -44.1870 -44.1849 -44.1799 -44.1757
   -44.1734 -44.1712 -44.1677 -44.1649 -44.1609 -44.1604 -44.1597 -44.1583
   -44.1570 -44.1549 -44.1540 -44.1531 -44.1529 -44.1493 -44.1451 -44.1391
   -44.1356 -44.1341 -44.1338 -44.1281 -44.1281 -44.1264 -44.1247 -44.1230
   -44.1212 -44.1207 -44.1206 -44.1170 -44.1164 -44.1155 -44.1151 -44.1131
   -44.1082 -30.1857 -30.1424 -30.1071 -30.0836 -30.0821 -30.0704 -30.0417
   -30.0264 -30.0083 -29.9912 -29.9820 -29.9712 -29.9510 -29.9318 -29.9290
   -29.9216 -29.9142 -29.9115 -29.8973 -29.8833 -29.8762 -29.8645 -29.8509
   -29.8492 -29.8401 -29.8346 -29.8296 -29.8205 -29.8133 -29.8108 -29.7949
   -29.7922 -29.7847 -27.4608 -27.4501 -27.4455 -27.4392 -27.4332 -27.4297
   -27.4222 -27.4088 -27.4019 -27.3900 -27.3861 -27.3782 -27.3677 -27.3528
   -27.3329 -27.3242 -27.3113 -27.2714 -27.2531 -27.2457 -27.2170 -23.7359
   -23.7191 -23.7010 -23.6785 -23.6447 -23.6065  14.6410  15.5040  16.3239
    16.4376  16.4670  16.6074  16.6736  16.7874  16.9132  16.9368  17.0567
    17.0989  17.1924  17.2819  17.4181  17.4564  17.5523  17.7207  17.8012
    17.8600  17.9621  18.0205  18.1133  18.1682  18.2135  18.2857  18.3582
    18.4321  18.4890  18.5257  18.5837  18.6214  18.7057  18.7913  18.8502
    18.9454  18.9620  19.0492  19.1050  19.1490  19.1627  19.2239  19.3043
    19.3170  19.3921  19.4023  19.4366  19.5129  19.6006  19.6587  19.7027
    19.7832  19.7971  19.8602  19.8951  19.9108  19.9654  19.9894  20.0583
    20.1822  20.2309  20.2773  20.3907  20.4596  20.4824  20.6871  20.7383
    20.7936  20.8839  20.9288  20.9550  21.0133  21.0551  21.0795  21.0886
    21.1645  21.2011  21.3835  21.4386  21.4649  21.5439  21.5852  21.7020
    21.8147  21.9166  22.0175  22.0877  22.1229  22.1656  22.2263  22.2530
    22.2707  22.2918  22.3364  22.3518  22.4217  22.4970  22.5489  22.5593
    22.5940  22.6472  22.7554  22.8617  22.9181  22.9828  23.0297  23.0985
    24.0633  24.3005  24.4180  24.5349  24.8066  25.4523  25.6507  26.3151
    26.4724  27.1941  27.2422  27.9367  28.5869  28.9432  29.2555  30.3014
    30.4413  30.7221  30.7712  31.0882  31.1582  31.6635  31.8505  32.1522
    32.4385  32.7947  33.1171  33.3458  33.7525  33.8857  33.9931  34.2921
    34.3661  34.9649  35.0004  35.0898  35.2433  35.3844  35.4890  35.6353
    35.9254  36.3532  36.5592

          k = 0.1481-0.1646-0.2867 ( 40831 PWs)   bands (ev):

   -75.9524 -75.8819 -75.8727 -75.8451 -75.8361 -75.8096 -75.7807 -75.7558
   -75.7531 -75.7449 -75.7415 -61.7014 -61.6861 -61.6767 -61.6616 -61.6409
   -61.6255 -61.5943 -55.8415 -55.8170 -44.3668 -44.3596 -44.3458 -44.3400
   -44.3366 -44.3342 -44.3313 -44.2998 -44.2945 -44.2884 -44.2832 -44.2806
   -44.2711 -44.2681 -44.2674 -44.2632 -44.2625 -44.2592 -44.2571 -44.2549
   -44.2541 -44.2492 -44.2471 -44.2444 -44.2426 -44.2412 -44.2290 -44.2281
   -44.2235 -44.2222 -44.2189 -44.2174 -44.2101 -44.2100 -44.2089 -44.2068
   -44.2060 -44.2041 -44.1927 -44.1912 -44.1870 -44.1849 -44.1799 -44.1757
   -44.1734 -44.1712 -44.1677 -44.1649 -44.1609 -44.1604 -44.1597 -44.1583
   -44.1570 -44.1549 -44.1540 -44.1531 -44.1529 -44.1493 -44.1451 -44.1391
   -44.1356 -44.1341 -44.1338 -44.1281 -44.1281 -44.1264 -44.1247 -44.1230
   -44.1212 -44.1207 -44.1206 -44.1170 -44.1164 -44.1155 -44.1151 -44.1131
   -44.1082 -30.1857 -30.1430 -30.1060 -30.0850 -30.0789 -30.0712 -30.0429
   -30.0256 -30.0119 -29.9898 -29.9799 -29.9714 -29.9527 -29.9331 -29.9279
   -29.9216 -29.9147 -29.9106 -29.8954 -29.8836 -29.8769 -29.8621 -29.8551
   -29.8476 -29.8396 -29.8340 -29.8317 -29.8209 -29.8121 -29.8104 -29.7950
   -29.7922 -29.7847 -27.4612 -27.4502 -27.4454 -27.4378 -27.4350 -27.4299
   -27.4211 -27.4089 -27.4027 -27.3924 -27.3844 -27.3765 -27.3668 -27.3521
   -27.3333 -27.3240 -27.3138 -27.2677 -27.2569 -27.2459 -27.2159 -23.7359
   -23.7191 -23.7010 -23.6785 -23.6447 -23.6065  14.5612  15.6095  16.1255
    16.4523  16.5351  16.5879  16.7754  16.8574  16.9184  16.9409  17.1341
    17.1728  17.2503  17.3050  17.3916  17.5037  17.5688  17.6672  17.8151
    17.8708  17.8987  17.9640  17.9896  18.1303  18.2124  18.2338  18.3102
    18.4504  18.4818  18.5231  18.5476  18.6333  18.7067  18.7567  18.8304
    18.9276  18.9675  19.0666  19.1165  19.1835  19.2181  19.2488  19.2688
    19.2901  19.3621  19.3929  19.4287  19.4475  19.4874  19.6442  19.6936
    19.7535  19.8125  19.8883  19.9032  19.9593  20.0084  20.0899  20.1691
    20.3187  20.3313  20.4433  20.4590  20.5835  20.7046  20.7348  20.7740
    20.7950  20.8491  20.8867  20.9049  20.9595  20.9760  21.0024  21.0525
    21.1157  21.1480  21.3845  21.4453  21.5571  21.6166  21.6889  21.7302
    21.7684  21.7851  21.8707  21.8860  21.9316  21.9491  21.9862  22.1110
    22.1495  22.1701  22.2334  22.2974  22.3381  22.3819  22.4831  22.5819
    22.6758  22.8771  22.8859  22.9489  23.0007  23.0742  23.2277  23.4320
    23.8215  23.9345  24.1603  24.2922  25.3277  25.6300  26.1586  26.3641
    26.4202  27.2848  27.3773  27.9556  28.8711  29.2545  29.6169  30.0833
    30.3541  30.6639  30.9251  30.9768  31.1725  31.4434  31.8780  32.1670
    32.4129  32.6730  33.0219  33.1183  33.3639  33.4850  33.7928  33.8831
    34.0362  34.3532  34.8933  35.0703  35.1731  35.2227  35.3693  35.6460
    35.7608  35.8680  36.4398

          k = 0.1852-0.1105-0.0956 ( 40817 PWs)   bands (ev):

   -75.9524 -75.8819 -75.8727 -75.8451 -75.8361 -75.8096 -75.7807 -75.7558
   -75.7530 -75.7450 -75.7415 -61.7014 -61.6861 -61.6767 -61.6615 -61.6409
   -61.6255 -61.5943 -55.8415 -55.8170 -44.3668 -44.3596 -44.3458 -44.3400
   -44.3366 -44.3342 -44.3313 -44.2998 -44.2945 -44.2884 -44.2832 -44.2806
   -44.2711 -44.2681 -44.2674 -44.2632 -44.2625 -44.2592 -44.2571 -44.2549
   -44.2541 -44.2492 -44.2471 -44.2444 -44.2426 -44.2412 -44.2290 -44.2281
   -44.2235 -44.2222 -44.2189 -44.2174 -44.2101 -44.2100 -44.2089 -44.2068
   -44.2060 -44.2041 -44.1927 -44.1912 -44.1870 -44.1849 -44.1799 -44.1757
   -44.1734 -44.1712 -44.1677 -44.1649 -44.1609 -44.1604 -44.1597 -44.1583
   -44.1570 -44.1549 -44.1540 -44.1531 -44.1529 -44.1493 -44.1451 -44.1391
   -44.1356 -44.1341 -44.1338 -44.1281 -44.1281 -44.1264 -44.1247 -44.1230
   -44.1212 -44.1207 -44.1206 -44.1170 -44.1164 -44.1155 -44.1151 -44.1131
   -44.1082 -30.1859 -30.1419 -30.1004 -30.0862 -30.0738 -30.0667 -30.0498
   -30.0264 -30.0117 -29.9891 -29.9831 -29.9716 -29.9566 -29.9377 -29.9290
   -29.9263 -29.9193 -29.9127 -29.8996 -29.8801 -29.8670 -29.8586 -29.8569
   -29.8456 -29.8393 -29.8358 -29.8287 -29.8199 -29.8114 -29.8096 -29.7955
   -29.7921 -29.7848 -27.4603 -27.4504 -27.4454 -27.4397 -27.4340 -27.4293
   -27.4179 -27.4088 -27.4056 -27.3981 -27.3802 -27.3738 -27.3666 -27.3503
   -27.3371 -27.3253 -27.3088 -27.2833 -27.2527 -27.2391 -27.2151 -23.7359
   -23.7191 -23.7010 -23.6785 -23.6447 -23.6065  14.1669  16.0504  16.4037
    16.4593  16.5096  16.7214  16.7990  16.9154  16.9541  17.1021  17.1729
    17.2028  17.2703  17.3848  17.4520  17.4966  17.5700  17.5983  17.6640
    17.7389  17.8050  17.8984  17.9312  18.0566  18.1307  18.1576  18.2337
    18.3105  18.3869  18.4570  18.5283  18.5787  18.6209  18.6929  18.8953
    18.9968  19.0542  19.0671  19.0988  19.1704  19.2031  19.2492  19.3010
    19.3595  19.3679  19.4099  19.4750  19.5222  19.6121  19.6435  19.6798
    19.7183  19.7820  19.8551  19.9160  19.9979  20.0483  20.1876  20.2350
    20.3248  20.3357  20.4350  20.4504  20.4724  20.6012  20.7405  20.7714
    20.7987  20.8525  20.8882  20.9494  21.0342  21.0876  21.1418  21.1699
    21.2068  21.3066  21.3594  21.3800  21.3913  21.4697  21.4918  21.5388
    21.7919  21.8371  21.8530  21.8944  21.9316  21.9546  22.0175  22.1343
    22.2306  22.2608  22.2678  22.3062  22.3552  22.5106  22.5571  22.6426
    22.7166  22.8197  22.8576  22.9395  22.9538  23.0126  23.0307  23.1927
    23.3634  23.6695  23.9339  24.0855  25.4387  26.0701  26.1551  26.4793
    26.8525  27.3872  27.6435  28.0753  28.9411  29.1449  29.3111  29.5720
    30.1624  30.5098  31.0651  31.3200  31.5407  31.8128  31.9878  32.2391
    32.3372  32.6709  33.0109  33.3652  33.4108  33.6327  33.7952  34.0765
    34.3503  34.7000  34.7815  35.0954  35.2299  35.3712  35.4264  35.7118
    35.7763  35.8888  36.0000

          k = 0.4260 0.1426 0.0956 ( 40819 PWs)   bands (ev):

   -75.9523 -75.8819 -75.8727 -75.8451 -75.8360 -75.8097 -75.7808 -75.7558
   -75.7530 -75.7450 -75.7415 -61.7014 -61.6857 -61.6767 -61.6617 -61.6409
   -61.6258 -61.5943 -55.8415 -55.8170 -44.3668 -44.3596 -44.3458 -44.3400
   -44.3366 -44.3342 -44.3313 -44.2998 -44.2945 -44.2884 -44.2832 -44.2806
   -44.2711 -44.2681 -44.2674 -44.2632 -44.2625 -44.2592 -44.2571 -44.2549
   -44.2541 -44.2492 -44.2471 -44.2444 -44.2426 -44.2412 -44.2290 -44.2281
   -44.2235 -44.2222 -44.2189 -44.2174 -44.2101 -44.2100 -44.2089 -44.2068
   -44.2060 -44.2041 -44.1927 -44.1912 -44.1870 -44.1850 -44.1799 -44.1757
   -44.1734 -44.1712 -44.1677 -44.1649 -44.1609 -44.1604 -44.1597 -44.1583
   -44.1570 -44.1549 -44.1540 -44.1531 -44.1529 -44.1493 -44.1451 -44.1391
   -44.1356 -44.1341 -44.1338 -44.1282 -44.1281 -44.1264 -44.1247 -44.1230
   -44.1212 -44.1207 -44.1206 -44.1170 -44.1164 -44.1155 -44.1151 -44.1131
   -44.1082 -30.1595 -30.1415 -30.1045 -30.0775 -30.0679 -30.0577 -30.0387
   -30.0176 -30.0037 -29.9948 -29.9809 -29.9654 -29.9529 -29.9487 -29.9375
   -29.9297 -29.9205 -29.9112 -29.9031 -29.8841 -29.8735 -29.8653 -29.8625
   -29.8560 -29.8456 -29.8371 -29.8278 -29.8231 -29.8141 -29.8103 -29.7990
   -29.7919 -29.7851 -27.4579 -27.4501 -27.4455 -27.4370 -27.4342 -27.4315
   -27.4214 -27.4054 -27.3969 -27.3852 -27.3807 -27.3784 -27.3687 -27.3522
   -27.3377 -27.3228 -27.3198 -27.2813 -27.2554 -27.2424 -27.2246 -23.7362
   -23.7191 -23.7018 -23.6789 -23.6450 -23.6078  15.0154  15.5939  16.3604
    16.5499  16.7906  16.8836  16.9864  17.0886  17.2241  17.2779  17.3274
    17.4312  17.5021  17.5827  17.6709  17.7085  17.7801  17.8585  17.9036
    17.9444  17.9769  18.0567  18.1185  18.2040  18.2556  18.2922  18.3481
    18.4076  18.4878  18.5893  18.6897  18.7248  18.7372  18.7811  18.8027
    18.8400  18.8560  18.8884  18.9352  18.9435  18.9756  19.0037  19.0488
    19.0724  19.1099  19.1664  19.4006  19.4515  19.4816  19.5751  19.6217
    19.7191  19.7922  19.8236  19.8539  19.9055  19.9263  19.9418  19.9935
    20.0574  20.1506  20.1739  20.2097  20.3347  20.4726  20.6453  20.6928
    20.7385  20.7588  20.7739  20.7895  20.8003  20.8344  20.9002  20.9406
    21.0503  21.1011  21.1311  21.2009  21.2584  21.2925  21.3708  21.5133
    21.5712  21.5888  21.6164  21.6861  21.7167  21.7440  21.7837  21.9867
    22.0154  22.0653  22.1212  22.1641  22.1788  22.2200  22.4772  22.4855
    22.5262  22.7348  22.7644  22.8649  22.9151  22.9681  23.0173  23.1641
    24.2117  24.3120  24.4060  24.8319  24.8704  25.0273  25.1305  26.0690
    27.7587  28.3508  28.8971  29.1224  29.3344  29.5357  30.3316  30.3696
    30.5641  30.6823  30.8415  31.0783  31.4359  32.4032  32.5536  32.6880
    32.8804  32.9833  33.2492  33.4895  33.5395  33.8485  34.2398  34.3478
    34.6183  34.8417  34.9820  35.2009  35.3231  35.4103  35.5854  35.6262
    35.6917  35.7860  35.8789

          k = 0.4630 0.1967 0.2867 ( 40805 PWs)   bands (ev):

   -75.9523 -75.8818 -75.8727 -75.8451 -75.8360 -75.8097 -75.7808 -75.7558
   -75.7531 -75.7449 -75.7415 -61.7013 -61.6857 -61.6767 -61.6616 -61.6409
   -61.6258 -61.5943 -55.8415 -55.8170 -44.3668 -44.3596 -44.3458 -44.3400
   -44.3366 -44.3342 -44.3313 -44.2998 -44.2945 -44.2884 -44.2832 -44.2806
   -44.2711 -44.2681 -44.2674 -44.2632 -44.2625 -44.2592 -44.2571 -44.2549
   -44.2541 -44.2492 -44.2471 -44.2444 -44.2426 -44.2412 -44.2290 -44.2281
   -44.2235 -44.2222 -44.2189 -44.2174 -44.2101 -44.2100 -44.2089 -44.2068
   -44.2060 -44.2041 -44.1927 -44.1912 -44.1870 -44.1850 -44.1799 -44.1757
   -44.1734 -44.1712 -44.1677 -44.1649 -44.1609 -44.1604 -44.1597 -44.1583
   -44.1570 -44.1549 -44.1540 -44.1531 -44.1529 -44.1493 -44.1451 -44.1391
   -44.1356 -44.1341 -44.1338 -44.1282 -44.1281 -44.1264 -44.1247 -44.1230
   -44.1212 -44.1207 -44.1206 -44.1170 -44.1164 -44.1155 -44.1151 -44.1131
   -44.1082 -30.1627 -30.1422 -30.1075 -30.0777 -30.0664 -30.0570 -30.0409
   -30.0207 -30.0036 -29.9907 -29.9789 -29.9637 -29.9527 -29.9426 -29.9366
   -29.9269 -29.9187 -29.9026 -29.8966 -29.8877 -29.8780 -29.8699 -29.8663
   -29.8603 -29.8525 -29.8344 -29.8284 -29.8238 -29.8134 -29.8096 -29.7990
   -29.7919 -29.7849 -27.4589 -27.4499 -27.4456 -27.4368 -27.4359 -27.4323
   -27.4204 -27.4074 -27.3959 -27.3865 -27.3812 -27.3736 -27.3669 -27.3513
   -27.3363 -27.3277 -27.3144 -27.2769 -27.2649 -27.2457 -27.2206 -23.7362
   -23.7191 -23.7018 -23.6789 -23.6450 -23.6077  15.3922  15.7910  15.8991
    16.3997  16.7588  16.8604  17.0431  17.1414  17.1736  17.2476  17.3995
    17.4843  17.5596  17.5831  17.6353  17.6474  17.6974  17.7685  17.7956
    17.8964  17.9561  18.0290  18.0536  18.1808  18.2312  18.2743  18.3600
    18.3834  18.4033  18.4643  18.4873  18.5609  18.6133  18.7390  18.7585
    18.8508  18.8973  18.9237  18.9897  19.0538  19.1162  19.1538  19.1966
    19.2393  19.2648  19.2998  19.3238  19.3977  19.5455  19.5944  19.6109
    19.6379  19.6937  19.8502  19.9671  20.0702  20.0939  20.1227  20.1534
    20.2379  20.3245  20.3664  20.3841  20.4055  20.4378  20.4712  20.4758
    20.5138  20.5720  20.6070  20.6499  20.7169  20.8498  20.9167  20.9294
    20.9747  21.0941  21.1607  21.2105  21.2587  21.2993  21.3461  21.4291
    21.5399  21.6409  21.6518  21.6828  21.7201  21.7468  21.7690  21.8452
    21.9719  22.0534  22.1159  22.1547  22.1909  22.2533  22.3067  22.4316
    22.5058  22.5516  22.5760  22.6557  22.6993  22.7564  23.0302  23.4959
    24.0908  24.9343  25.1060  25.1931  25.3366  25.9903  26.1424  26.3382
    26.9241  27.0828  28.0339  28.3910  28.8752  29.5502  30.0645  30.2226
    30.5201  31.2000  31.4672  31.6759  31.7287  31.9176  32.0457  32.2226
    32.4357  32.8528  33.1066  33.3565  33.5410  33.6796  33.9690  34.2976
    34.4400  34.7309  35.0890  35.1699  35.2990  35.4543  35.7475  35.7896
    35.9242  35.9971  36.0366

          k = 0.3519 0.0344-0.2867 ( 40816 PWs)   bands (ev):

   -75.9523 -75.8818 -75.8727 -75.8451 -75.8360 -75.8097 -75.7808 -75.7558
   -75.7531 -75.7449 -75.7415 -61.7013 -61.6857 -61.6767 -61.6616 -61.6410
   -61.6258 -61.5943 -55.8415 -55.8170 -44.3668 -44.3596 -44.3458 -44.3400
   -44.3366 -44.3342 -44.3313 -44.2998 -44.2945 -44.2884 -44.2832 -44.2806
   -44.2711 -44.2681 -44.2674 -44.2632 -44.2625 -44.2592 -44.2571 -44.2549
   -44.2541 -44.2492 -44.2471 -44.2444 -44.2426 -44.2412 -44.2290 -44.2281
   -44.2235 -44.2222 -44.2189 -44.2174 -44.2101 -44.2100 -44.2089 -44.2068
   -44.2060 -44.2041 -44.1927 -44.1912 -44.1870 -44.1850 -44.1799 -44.1757
   -44.1734 -44.1712 -44.1677 -44.1649 -44.1609 -44.1604 -44.1597 -44.1583
   -44.1570 -44.1549 -44.1540 -44.1531 -44.1529 -44.1493 -44.1451 -44.1391
   -44.1356 -44.1341 -44.1338 -44.1282 -44.1281 -44.1264 -44.1247 -44.1230
   -44.1212 -44.1207 -44.1206 -44.1170 -44.1164 -44.1155 -44.1151 -44.1131
   -44.1082 -30.1628 -30.1425 -30.1065 -30.0798 -30.0638 -30.0573 -30.0409
   -30.0190 -30.0065 -29.9922 -29.9767 -29.9651 -29.9538 -29.9410 -29.9361
   -29.9276 -29.9181 -29.9017 -29.8978 -29.8827 -29.8813 -29.8720 -29.8662
   -29.8587 -29.8531 -29.8341 -29.8282 -29.8242 -29.8133 -29.8101 -29.7988
   -29.7918 -29.7850 -27.4587 -27.4499 -27.4460 -27.4378 -27.4357 -27.4309
   -27.4209 -27.4068 -27.3959 -27.3853 -27.3814 -27.3760 -27.3677 -27.3500
   -27.3372 -27.3278 -27.3083 -27.2877 -27.2584 -27.2457 -27.2212 -23.7362
   -23.7191 -23.7018 -23.6789 -23.6450 -23.6077  15.0005  16.0803  16.3868
    16.5302  16.6458  16.9039  17.0134  17.2330  17.2719  17.3058  17.3276
    17.3547  17.4215  17.4701  17.5646  17.6814  17.7011  17.7645  17.7808
    17.8798  17.9182  17.9465  18.0152  18.0512  18.1500  18.2227  18.2675
    18.3451  18.4198  18.4388  18.5099  18.5686  18.6655  18.6968  18.7520
    18.7841  18.8378  18.8469  18.9130  18.9853  19.0175  19.1522  19.3606
    19.3722  19.4104  19.4437  19.4576  19.5608  19.5751  19.7691  19.8458
    19.8914  19.9208  19.9369  19.9500  19.9787  20.0192  20.0549  20.0751
    20.1251  20.1885  20.2303  20.2681  20.3258  20.3734  20.4474  20.4921
    20.5255  20.6546  20.6954  20.7183  20.7455  20.7896  20.8045  20.8376
    20.8886  20.9120  21.0552  21.1891  21.2272  21.2467  21.3237  21.3560
    21.4980  21.5505  21.5904  21.6484  21.6905  21.7349  21.7512  21.9961
    22.0564  22.0975  22.1487  22.1650  22.2029  22.2432  22.2990  22.4687
    22.5417  22.6988  22.7790  22.8070  22.9212  22.9940  23.1865  23.3630
    23.4482  24.1789  24.7314  25.0075  25.9273  26.0337  26.1761  27.3825
    27.5146  27.8418  28.0754  28.3802  29.0897  29.2845  29.4551  29.7711
    30.0932  30.5246  30.7229  31.0735  31.6704  32.0229  32.5024  32.5808
    32.9366  33.1206  33.2345  33.3306  33.5419  33.6735  33.7478  33.8415
    34.1500  34.7285  34.9506  35.1197  35.1989  35.2697  35.4366  35.5376
    35.7439  36.1019  36.5984

          k = 0.3889 0.0885-0.0956 ( 40810 PWs)   bands (ev):

   -75.9523 -75.8819 -75.8727 -75.8451 -75.8360 -75.8097 -75.7808 -75.7558
   -75.7530 -75.7450 -75.7415 -61.7014 -61.6857 -61.6767 -61.6617 -61.6409
   -61.6258 -61.5943 -55.8415 -55.8170 -44.3668 -44.3596 -44.3458 -44.3400
   -44.3366 -44.3342 -44.3313 -44.2998 -44.2945 -44.2884 -44.2832 -44.2806
   -44.2711 -44.2681 -44.2674 -44.2632 -44.2625 -44.2592 -44.2571 -44.2549
   -44.2541 -44.2492 -44.2471 -44.2444 -44.2426 -44.2412 -44.2290 -44.2281
   -44.2235 -44.2222 -44.2189 -44.2174 -44.2101 -44.2100 -44.2089 -44.2068
   -44.2060 -44.2041 -44.1927 -44.1912 -44.1870 -44.1850 -44.1799 -44.1757
   -44.1734 -44.1712 -44.1677 -44.1649 -44.1609 -44.1604 -44.1597 -44.1583
   -44.1570 -44.1549 -44.1540 -44.1531 -44.1529 -44.1493 -44.1451 -44.1391
   -44.1356 -44.1341 -44.1338 -44.1282 -44.1281 -44.1264 -44.1247 -44.1230
   -44.1212 -44.1207 -44.1206 -44.1170 -44.1164 -44.1155 -44.1151 -44.1131
   -44.1082 -30.1596 -30.1418 -30.1035 -30.0800 -30.0646 -30.0584 -30.0380
   -30.0133 -30.0093 -29.9983 -29.9788 -29.9639 -29.9548 -29.9474 -29.9373
   -29.9311 -29.9185 -29.9116 -29.9032 -29.8825 -29.8733 -29.8675 -29.8633
   -29.8544 -29.8460 -29.8366 -29.8272 -29.8239 -29.8141 -29.8107 -29.7988
   -29.7918 -29.7852 -27.4576 -27.4501 -27.4459 -27.4376 -27.4347 -27.4299
   -27.4219 -27.4046 -27.3968 -27.3837 -27.3818 -27.3803 -27.3694 -27.3513
   -27.3373 -27.3264 -27.3121 -27.2885 -27.2522 -27.2415 -27.2256 -23.7362
   -23.7191 -23.7018 -23.6789 -23.6449 -23.6078  14.7984  15.7743  16.6084
    16.7460  16.8921  16.9624  17.0510  17.1438  17.1766  17.2147  17.3185
    17.4390  17.5141  17.5521  17.5840  17.6407  17.7077  17.7605  17.7788
    17.8647  17.8979  17.9251  18.0358  18.0725  18.1632  18.2048  18.2287
    18.2694  18.4577  18.4992  18.5601  18.6006  18.7137  18.7740  18.8769
    18.9164  18.9373  18.9688  19.0523  19.1846  19.2336  19.2361  19.2634
    19.2839  19.3187  19.3437  19.4443  19.5236  19.5449  19.5833  19.6210
    19.6404  19.6905  19.7364  19.7639  19.8391  19.9279  19.9516  19.9617
    20.0832  20.1355  20.2451  20.2847  20.3240  20.3435  20.3773  20.4552
    20.5256  20.6230  20.7200  20.7537  20.8320  20.8638  20.9312  21.0430
    21.0851  21.1208  21.1963  21.2214  21.2851  21.3207  21.3514  21.3783
    21.4058  21.4734  21.5153  21.6023  21.6826  21.6961  21.8227  21.9057
    22.0047  22.0585  22.1502  22.1926  22.2232  22.4979  22.5224  22.5917
    22.6444  22.7039  22.9027  22.9603  22.9946  23.0526  23.1033  23.4941
    23.5813  23.9872  24.1013  24.2470  24.9893  25.1668  26.1114  27.0225
    27.3836  28.4036  28.8943  29.1593  29.3693  29.6008  30.0939  30.2304
    30.4367  30.5843  31.0369  31.2414  31.6803  31.9902  32.1036  32.2197
    32.4244  33.0370  33.2450  33.3682  33.4452  33.6743  34.0345  34.1745
    34.2981  34.4324  34.5907  34.8568  35.2439  35.3884  35.6827  35.7537
    35.9254  36.0806  36.7980

          k = 0.4260 0.3309 0.0956 ( 40802 PWs)   bands (ev):

   -75.9523 -75.8819 -75.8727 -75.8451 -75.8360 -75.8097 -75.7808 -75.7558
   -75.7530 -75.7450 -75.7415 -61.7014 -61.6857 -61.6767 -61.6616 -61.6409
   -61.6258 -61.5943 -55.8415 -55.8170 -44.3668 -44.3596 -44.3458 -44.3400
   -44.3366 -44.3342 -44.3313 -44.2998 -44.2945 -44.2884 -44.2832 -44.2806
   -44.2711 -44.2681 -44.2674 -44.2632 -44.2625 -44.2592 -44.2571 -44.2549
   -44.2541 -44.2492 -44.2471 -44.2444 -44.2426 -44.2412 -44.2290 -44.2281
   -44.2235 -44.2222 -44.2189 -44.2174 -44.2101 -44.2100 -44.2089 -44.2068
   -44.2060 -44.2041 -44.1927 -44.1912 -44.1870 -44.1850 -44.1799 -44.1757
   -44.1734 -44.1712 -44.1677 -44.1649 -44.1609 -44.1604 -44.1597 -44.1583
   -44.1570 -44.1549 -44.1540 -44.1531 -44.1529 -44.1493 -44.1451 -44.1391
   -44.1356 -44.1341 -44.1338 -44.1282 -44.1281 -44.1264 -44.1247 -44.1230
   -44.1212 -44.1207 -44.1206 -44.1170 -44.1164 -44.1155 -44.1151 -44.1131
   -44.1082 -30.1625 -30.1412 -30.1015 -30.0747 -30.0689 -30.0592 -30.0456
   -30.0154 -29.9949 -29.9861 -29.9786 -29.9686 -29.9555 -29.9518 -29.9386
   -29.9338 -29.9214 -29.9181 -29.9015 -29.8827 -29.8729 -29.8640 -29.8600
   -29.8568 -29.8485 -29.8376 -29.8303 -29.8241 -29.8120 -29.8073 -29.7969
   -29.7931 -29.7848 -27.4581 -27.4495 -27.4464 -27.4380 -27.4352 -27.4316
   -27.4181 -27.4089 -27.3990 -27.3845 -27.3809 -27.3708 -27.3684 -27.3519
   -27.3370 -27.3271 -27.3166 -27.2815 -27.2652 -27.2402 -27.2202 -23.7362
   -23.7191 -23.7018 -23.6789 -23.6449 -23.6078  15.3545  15.4446  16.1866
    16.3322  16.6421  17.0219  17.1283  17.1915  17.2161  17.3221  17.3558
    17.5368  17.6137  17.6884  17.7401  17.7873  17.7979  17.8517  17.9425
    17.9713  18.0518  18.0925  18.1449  18.1667  18.2403  18.2573  18.3098
    18.3498  18.3964  18.5013  18.5305  18.5571  18.6065  18.6612  18.7251
    18.7787  18.8094  18.8660  18.9316  18.9705  18.9964  19.0819  19.1519
    19.1570  19.2332  19.2482  19.2959  19.3429  19.4467  19.4994  19.5665
    19.6000  19.6464  19.6830  19.7144  19.7468  19.8501  19.8860  19.9309
    19.9917  20.0442  20.1347  20.1632  20.3297  20.4168  20.4826  20.5976
    20.6339  20.7794  20.8509  20.8866  20.9782  20.9987  21.0494  21.0873
    21.1001  21.1705  21.2245  21.2576  21.3130  21.3232  21.3697  21.4438
    21.5321  21.6239  21.6341  21.6586  21.7167  21.8958  21.9086  21.9407
    22.0386  22.1466  22.1778  22.2008  22.3086  22.3595  22.4652  22.5133
    22.5461  22.5747  22.6412  22.7018  22.7348  22.7736  23.4585  23.7311
    24.1351  24.2405  24.4703  25.3709  25.6588  25.8934  26.0143  26.2467
    26.4687  27.1799  28.0988  28.5296  28.7329  29.2330  29.6569  30.1170
    30.1998  30.8196  31.0179  31.2398  31.4981  31.6887  32.6363  32.7807
    32.9011  33.2053  33.3794  33.6400  33.9873  34.0485  34.3742  34.5338
    34.6906  34.9151  34.9995  35.4313  35.7263  35.8962  35.9834  36.4095
    36.4931  36.5921  36.6424

          k = 0.4630 0.3850 0.2867 ( 40795 PWs)   bands (ev):

   -75.9523 -75.8818 -75.8727 -75.8451 -75.8360 -75.8097 -75.7808 -75.7558
   -75.7531 -75.7449 -75.7415 -61.7013 -61.6857 -61.6767 -61.6616 -61.6410
   -61.6258 -61.5943 -55.8415 -55.8170 -44.3668 -44.3596 -44.3458 -44.3400
   -44.3366 -44.3342 -44.3313 -44.2998 -44.2945 -44.2884 -44.2832 -44.2806
   -44.2711 -44.2681 -44.2674 -44.2632 -44.2625 -44.2592 -44.2571 -44.2549
   -44.2541 -44.2492 -44.2471 -44.2444 -44.2426 -44.2412 -44.2290 -44.2281
   -44.2235 -44.2222 -44.2189 -44.2174 -44.2101 -44.2100 -44.2089 -44.2068
   -44.2060 -44.2041 -44.1927 -44.1912 -44.1870 -44.1850 -44.1799 -44.1757
   -44.1734 -44.1712 -44.1677 -44.1649 -44.1609 -44.1604 -44.1597 -44.1583
   -44.1570 -44.1549 -44.1540 -44.1531 -44.1529 -44.1493 -44.1451 -44.1391
   -44.1356 -44.1341 -44.1338 -44.1282 -44.1281 -44.1264 -44.1247 -44.1230
   -44.1212 -44.1207 -44.1206 -44.1170 -44.1164 -44.1155 -44.1151 -44.1131
   -44.1082 -30.1640 -30.1418 -30.1079 -30.0792 -30.0645 -30.0597 -30.0426
   -30.0149 -29.9979 -29.9845 -29.9780 -29.9662 -29.9548 -29.9481 -29.9366
   -29.9304 -29.9175 -29.9093 -29.8978 -29.8871 -29.8750 -29.8707 -29.8647
   -29.8598 -29.8497 -29.8342 -29.8306 -29.8263 -29.8129 -29.8081 -29.7963
   -29.7929 -29.7848 -27.4598 -27.4499 -27.4463 -27.4389 -27.4331 -27.4319
   -27.4202 -27.4070 -27.3951 -27.3868 -27.3824 -27.3742 -27.3668 -27.3497
   -27.3361 -27.3281 -27.3082 -27.2887 -27.2628 -27.2433 -27.2200 -23.7362
   -23.7191 -23.7018 -23.6789 -23.6450 -23.6078  15.6042  15.7089  16.1207
    16.2448  16.6986  16.7680  17.1699  17.2185  17.2434  17.2567  17.3178
    17.3423  17.4707  17.6079  17.7212  17.7725  17.8069  17.8440  17.8813
    17.9142  17.9714  18.0618  18.0789  18.0962  18.1381  18.1882  18.2567
    18.3045  18.3965  18.4419  18.4804  18.5400  18.5470  18.5946  18.6159
    18.6548  18.7064  18.7522  18.8149  19.1061  19.2105  19.2341  19.3031
    19.3432  19.3847  19.4486  19.5099  19.5482  19.5936  19.6176  19.6406
    19.7044  19.7304  19.7483  19.7732  19.8014  19.8194  19.8481  19.8689
    20.0451  20.2483  20.3199  20.3575  20.3765  20.4814  20.5189  20.6210
    20.6547  20.7099  20.7899  20.7972  20.8276  20.8376  20.8822  20.9213
    20.9454  21.0602  21.1106  21.1449  21.2104  21.2421  21.2920  21.3898
    21.4302  21.5090  21.5763  21.6906  21.8382  21.9233  22.0063  22.0120
    22.0389  22.0785  22.1566  22.2019  22.2387  22.4110  22.4603  22.5247
    22.5437  22.6237  22.6684  22.6735  22.7124  22.8257  22.8631  23.0433
    24.5962  24.6703  25.4074  26.0877  26.1948  26.3296  26.4594  26.7393
    26.8520  26.8790  27.7278  28.1110  28.7583  28.9865  29.2695  29.4682
    29.9211  30.1609  30.3533  30.7182  31.0016  31.1287  31.4856  31.9597
    32.4776  32.6042  33.3304  33.9967  34.3047  34.7307  34.9701  35.1033
    35.4257  35.5921  35.6186  35.8468  35.9811  36.1084  36.1770  36.3570
    36.5502  36.8146  36.9431

          k = 0.3519 0.2227-0.2867 ( 40805 PWs)   bands (ev):

   -75.9523 -75.8818 -75.8727 -75.8451 -75.8360 -75.8097 -75.7808 -75.7558
   -75.7531 -75.7449 -75.7415 -61.7013 -61.6857 -61.6767 -61.6617 -61.6409
   -61.6258 -61.5943 -55.8415 -55.8170 -44.3668 -44.3596 -44.3458 -44.3400
   -44.3366 -44.3342 -44.3313 -44.2998 -44.2945 -44.2884 -44.2832 -44.2806
   -44.2711 -44.2681 -44.2674 -44.2632 -44.2625 -44.2592 -44.2571 -44.2549
   -44.2541 -44.2492 -44.2471 -44.2444 -44.2426 -44.2412 -44.2290 -44.2281
   -44.2235 -44.2222 -44.2189 -44.2174 -44.2101 -44.2100 -44.2089 -44.2068
   -44.2060 -44.2041 -44.1927 -44.1912 -44.1870 -44.1850 -44.1799 -44.1757
   -44.1734 -44.1712 -44.1677 -44.1649 -44.1609 -44.1604 -44.1597 -44.1583
   -44.1570 -44.1549 -44.1540 -44.1531 -44.1529 -44.1493 -44.1451 -44.1391
   -44.1356 -44.1341 -44.1338 -44.1282 -44.1281 -44.1264 -44.1247 -44.1230
   -44.1212 -44.1207 -44.1206 -44.1170 -44.1164 -44.1155 -44.1151 -44.1131
   -44.1082 -30.1623 -30.1415 -30.1107 -30.0821 -30.0627 -30.0561 -30.0438
   -30.0124 -30.0008 -29.9862 -29.9770 -29.9669 -29.9570 -29.9492 -29.9362
   -29.9297 -29.9175 -29.9060 -29.8951 -29.8849 -29.8789 -29.8712 -29.8641
   -29.8582 -29.8510 -29.8343 -29.8299 -29.8272 -29.8131 -29.8090 -29.7962
   -29.7928 -29.7848 -27.4592 -27.4499 -27.4466 -27.4391 -27.4338 -27.4293
   -27.4226 -27.4051 -27.3933 -27.3867 -27.3823 -27.3771 -27.3700 -27.3510
   -27.3349 -27.3260 -27.3097 -27.2886 -27.2571 -27.2447 -27.2224 -23.7362
   -23.7191 -23.7018 -23.6789 -23.6450 -23.6078  15.2253  15.8900  16.3999
    16.5373  16.6422  16.9653  17.0415  17.0843  17.1384  17.2845  17.3992
    17.4275  17.4839  17.5551  17.6113  17.6767  17.7940  17.8079  17.8723
    17.8824  17.9289  18.0319  18.0579  18.0969  18.1545  18.1595  18.2024
    18.2915  18.3934  18.4231  18.4833  18.5350  18.5711  18.6111  18.6543
    18.6777  18.7181  18.7402  18.9254  19.0102  19.0757  19.1330  19.3313
    19.3911  19.4508  19.5219  19.5399  19.5746  19.6237  19.6502  19.6797
    19.7275  19.7566  19.8062  19.8119  19.8458  19.8800  19.9193  19.9966
    20.0279  20.0860  20.2325  20.2822  20.4072  20.4295  20.4746  20.5207
    20.5757  20.6124  20.6863  20.7130  20.7455  20.8008  20.8589  20.8869
    20.9699  20.9917  21.0462  21.0701  21.1498  21.3449  21.3661  21.4153
    21.4855  21.5008  21.5762  21.6360  21.7006  21.8896  22.0961  22.1839
    22.3344  22.3508  22.3863  22.4220  22.4471  22.4847  22.5261  22.5686
    22.5954  22.6280  22.6638  22.6836  22.7221  22.7742  22.7957  22.8316
    23.7500  24.3198  24.5080  25.6345  26.7280  26.9730  27.1411  27.3001
    27.4650  27.6218  27.7153  28.0986  28.4937  28.6169  28.9725  29.2524
    29.7305  29.8255  30.1449  30.6498  30.8313  31.1578  31.6897  32.1008
    32.4727  32.5932  33.0266  33.4524  33.9764  34.2680  34.7170  34.8600
    35.0140  35.6125  35.7508  35.9454  36.1190  36.2118  36.3158  36.3564
    36.4640  36.5846  36.7210

          k = 0.3889 0.2768-0.0956 ( 40828 PWs)   bands (ev):

   -75.9523 -75.8819 -75.8727 -75.8451 -75.8360 -75.8097 -75.7808 -75.7558
   -75.7530 -75.7450 -75.7415 -61.7014 -61.6857 -61.6767 -61.6617 -61.6409
   -61.6258 -61.5943 -55.8415 -55.8170 -44.3668 -44.3596 -44.3458 -44.3400
   -44.3366 -44.3342 -44.3313 -44.2998 -44.2945 -44.2884 -44.2832 -44.2806
   -44.2711 -44.2681 -44.2674 -44.2632 -44.2625 -44.2592 -44.2571 -44.2549
   -44.2541 -44.2492 -44.2471 -44.2444 -44.2426 -44.2412 -44.2290 -44.2281
   -44.2235 -44.2222 -44.2189 -44.2174 -44.2101 -44.2100 -44.2089 -44.2068
   -44.2060 -44.2041 -44.1927 -44.1912 -44.1870 -44.1850 -44.1799 -44.1757
   -44.1734 -44.1712 -44.1677 -44.1649 -44.1609 -44.1604 -44.1597 -44.1583
   -44.1570 -44.1549 -44.1540 -44.1531 -44.1529 -44.1493 -44.1451 -44.1391
   -44.1356 -44.1341 -44.1338 -44.1282 -44.1281 -44.1264 -44.1247 -44.1230
   -44.1212 -44.1207 -44.1206 -44.1170 -44.1164 -44.1155 -44.1151 -44.1131
   -44.1082 -30.1608 -30.1407 -30.1057 -30.0794 -30.0637 -30.0555 -30.0468
   -30.0130 -29.9991 -29.9883 -29.9774 -29.9669 -29.9582 -29.9536 -29.9382
   -29.9329 -29.9195 -29.9157 -29.9013 -29.8805 -29.8731 -29.8682 -29.8623
   -29.8550 -29.8452 -29.8367 -29.8304 -29.8256 -29.8119 -29.8089 -29.7967
   -29.7929 -29.7847 -27.4576 -27.4495 -27.4468 -27.4387 -27.4336 -27.4314
   -27.4209 -27.4052 -27.3969 -27.3849 -27.3818 -27.3776 -27.3674 -27.3521
   -27.3369 -27.3230 -27.3194 -27.2826 -27.2595 -27.2406 -27.2230 -23.7362
   -23.7191 -23.7018 -23.6789 -23.6449 -23.6078  15.1265  15.4743  16.3585
    16.6931  16.9231  16.9699  17.0166  17.1080  17.2020  17.2636  17.3681
    17.4734  17.5153  17.6783  17.6867  17.7092  17.8163  17.8444  17.9040
    17.9315  18.0178  18.0804  18.1259  18.1684  18.2161  18.2790  18.3253
    18.3565  18.3716  18.4387  18.5169  18.5333  18.5953  18.6763  18.7360
    18.7651  18.7966  18.8905  18.9249  19.0019  19.0521  19.1006  19.1734
    19.2354  19.2833  19.3266  19.3678  19.4088  19.4440  19.4749  19.5659
    19.6251  19.6435  19.7034  19.7557  19.7879  19.8124  19.8711  19.8813
    19.9451  19.9588  20.0894  20.2708  20.2887  20.3571  20.4120  20.5088
    20.6084  20.6498  20.6791  20.8643  20.9334  21.0111  21.0375  21.0685
    21.0956  21.1437  21.2314  21.2676  21.3193  21.3567  21.3808  21.3988
    21.4802  21.5147  21.6028  21.6988  21.8006  21.8657  21.9372  22.0553
    22.1080  22.2557  22.3841  22.4388  22.4663  22.4876  22.5833  22.6125
    22.6373  22.6546  22.7226  22.7751  22.8602  22.9449  23.1230  23.3342
    23.4157  23.5945  24.9112  25.0777  25.2546  25.4784  26.3105  27.0946
    27.5999  27.8740  28.0797  28.4686  28.7188  28.9881  29.2931  29.7770
    30.1592  30.4315  30.5309  31.6315  31.8618  32.1238  32.3276  32.6147
    32.8153  32.8948  33.0496  33.2729  33.5088  34.0039  34.1956  34.4164
    34.5730  34.7596  34.8882  35.6120  35.6753  35.8089  35.9624  36.0496
    36.2298  36.3151  36.7552

          k = 0.4260-0.2341 0.0956 ( 40795 PWs)   bands (ev):

   -75.9523 -75.8818 -75.8727 -75.8451 -75.8360 -75.8097 -75.7808 -75.7558
   -75.7530 -75.7450 -75.7415 -61.7014 -61.6857 -61.6767 -61.6616 -61.6409
   -61.6258 -61.5943 -55.8415 -55.8170 -44.3668 -44.3596 -44.3458 -44.3400
   -44.3366 -44.3342 -44.3313 -44.2998 -44.2945 -44.2884 -44.2832 -44.2806
   -44.2711 -44.2681 -44.2674 -44.2632 -44.2625 -44.2592 -44.2571 -44.2549
   -44.2541 -44.2492 -44.2471 -44.2444 -44.2426 -44.2412 -44.2290 -44.2281
   -44.2235 -44.2222 -44.2189 -44.2174 -44.2101 -44.2100 -44.2089 -44.2068
   -44.2060 -44.2041 -44.1927 -44.1912 -44.1870 -44.1850 -44.1799 -44.1757
   -44.1734 -44.1712 -44.1677 -44.1649 -44.1609 -44.1604 -44.1597 -44.1583
   -44.1570 -44.1549 -44.1540 -44.1531 -44.1529 -44.1493 -44.1451 -44.1391
   -44.1356 -44.1341 -44.1338 -44.1282 -44.1281 -44.1264 -44.1247 -44.1230
   -44.1212 -44.1207 -44.1206 -44.1170 -44.1164 -44.1155 -44.1151 -44.1131
   -44.1082 -30.1658 -30.1389 -30.0972 -30.0769 -30.0654 -30.0624 -30.0501
   -30.0137 -29.9894 -29.9873 -29.9772 -29.9697 -29.9576 -29.9520 -29.9368
   -29.9322 -29.9259 -29.9174 -29.9003 -29.8847 -29.8727 -29.8660 -29.8621
   -29.8546 -29.8466 -29.8390 -29.8292 -29.8256 -29.8116 -29.8077 -29.7949
   -29.7930 -29.7849 -27.4584 -27.4496 -27.4463 -27.4398 -27.4329 -27.4316
   -27.4193 -27.4073 -27.3988 -27.3840 -27.3814 -27.3735 -27.3680 -27.3498
   -27.3371 -27.3280 -27.3100 -27.2918 -27.2623 -27.2393 -27.2198 -23.7362
   -23.7191 -23.7018 -23.6789 -23.6449 -23.6078  15.0510  15.8685  16.1376
    16.4329  16.7826  16.9561  16.9965  17.1595  17.3242  17.3948  17.4246
    17.4974  17.5612  17.6360  17.6956  17.7641  17.7813  17.8522  17.8913
    17.9648  18.0389  18.0487  18.0884  18.1201  18.1451  18.1980  18.2896
    18.3420  18.3949  18.4272  18.4509  18.5214  18.5649  18.6176  18.6578
    18.6817  18.7510  18.9308  18.9636  19.0182  19.0394  19.1927  19.2301
    19.2929  19.3145  19.3850  19.4174  19.4775  19.5368  19.5735  19.6221
    19.6494  19.6701  19.7100  19.7420  19.7685  19.8527  19.8741  19.9232
    19.9455  20.0004  20.0210  20.2504  20.3366  20.3903  20.5334  20.5803
    20.6154  20.6473  20.7009  20.7873  20.8871  20.9141  20.9441  20.9906
    21.0196  21.0823  21.1299  21.1683  21.2603  21.3224  21.3618  21.4345
    21.4870  21.5744  21.6655  21.8291  21.8988  22.0082  22.0330  22.0638
    22.1728  22.2278  22.2866  22.3194  22.4237  22.4531  22.4975  22.5244
    22.5813  22.6179  22.6450  22.6954  22.7241  22.8230  22.8550  23.3403
    24.0554  24.4076  24.5045  24.6759  25.8346  26.1307  26.6434  26.8225
    27.0034  27.0999  27.8138  28.1581  28.6704  28.9280  29.3886  29.8072
    30.3153  30.3830  30.9730  31.2906  31.6061  31.9047  32.3329  32.7588
    32.8031  33.0644  33.1479  33.6143  33.8822  34.1749  34.3517  35.0659
    35.2262  35.2982  35.5278  35.8477  35.9249  36.0092  36.0395  36.1164
    36.2519  36.3458  36.4547

          k = 0.4630-0.1800 0.2867 ( 40774 PWs)   bands (ev):

   -75.9523 -75.8818 -75.8727 -75.8451 -75.8360 -75.8097 -75.7808 -75.7558
   -75.7531 -75.7449 -75.7415 -61.7013 -61.6857 -61.6767 -61.6617 -61.6409
   -61.6258 -61.5943 -55.8415 -55.8170 -44.3668 -44.3596 -44.3458 -44.3400
   -44.3366 -44.3342 -44.3313 -44.2998 -44.2945 -44.2884 -44.2832 -44.2806
   -44.2711 -44.2681 -44.2674 -44.2632 -44.2625 -44.2592 -44.2571 -44.2549
   -44.2541 -44.2492 -44.2471 -44.2444 -44.2426 -44.2412 -44.2290 -44.2281
   -44.2235 -44.2222 -44.2189 -44.2174 -44.2101 -44.2100 -44.2089 -44.2068
   -44.2060 -44.2041 -44.1927 -44.1912 -44.1870 -44.1850 -44.1799 -44.1757
   -44.1734 -44.1712 -44.1677 -44.1649 -44.1609 -44.1604 -44.1597 -44.1583
   -44.1570 -44.1549 -44.1540 -44.1531 -44.1529 -44.1493 -44.1451 -44.1391
   -44.1356 -44.1341 -44.1338 -44.1282 -44.1281 -44.1264 -44.1247 -44.1230
   -44.1212 -44.1207 -44.1206 -44.1170 -44.1164 -44.1155 -44.1151 -44.1131
   -44.1082 -30.1652 -30.1401 -30.1070 -30.0815 -30.0629 -30.0603 -30.0445
   -30.0127 -29.9958 -29.9853 -29.9749 -29.9715 -29.9539 -29.9477 -29.9361
   -29.9299 -29.9189 -29.9109 -29.8959 -29.8872 -29.8772 -29.8716 -29.8639
   -29.8547 -29.8514 -29.8354 -29.8305 -29.8284 -29.8126 -29.8086 -29.7944
   -29.7927 -29.7851 -27.4599 -27.4499 -27.4462 -27.4398 -27.4327 -27.4293
   -27.4224 -27.4050 -27.3919 -27.3885 -27.3824 -27.3766 -27.3696 -27.3509
   -27.3340 -27.3257 -27.3107 -27.2890 -27.2597 -27.2433 -27.2215 -23.7362
   -23.7191 -23.7018 -23.6789 -23.6450 -23.6078  15.4399  15.8749  16.1580
    16.3424  16.7507  16.8179  16.9619  17.0150  17.2091  17.3939  17.4332
    17.4827  17.5281  17.5637  17.6127  17.6700  17.7264  17.7677  17.8380
    17.9059  17.9603  17.9884  18.0197  18.0779  18.2104  18.2445  18.3089
    18.3407  18.4235  18.4300  18.4559  18.5214  18.5823  18.6091  18.6460
    18.7180  18.7572  18.8253  18.9567  18.9893  19.1355  19.1520  19.2371
    19.2916  19.3806  19.4336  19.4629  19.5602  19.6440  19.6902  19.7079
    19.7201  19.7415  19.7902  19.8432  19.8761  19.9257  19.9557  19.9861
    20.0679  20.2222  20.2681  20.3145  20.3415  20.3824  20.4311  20.5018
    20.5799  20.6709  20.7661  20.7732  20.8035  20.8445  20.8995  20.9375
    20.9659  20.9797  21.0407  21.0745  21.1044  21.1414  21.3082  21.3522
    21.3844  21.4315  21.4642  21.5934  21.8018  21.9108  22.0172  22.1225
    22.1927  22.2402  22.2529  22.4212  22.4812  22.5162  22.5484  22.6016
    22.6189  22.6582  22.6977  22.7734  22.8303  22.8643  22.9283  23.3162
    23.5394  24.4875  24.7673  25.4807  26.1851  26.3666  26.5842  27.0167
    27.5924  28.0367  28.1017  28.5783  28.6391  28.8950  29.0066  29.1516
    29.4750  29.9205  30.0531  30.4186  30.5866  30.7639  31.2836  32.4599
    32.6770  32.9053  33.0138  34.3417  34.4924  34.7803  34.8570  35.1576
    35.3207  35.4298  35.6241  35.8947  35.9657  36.0886  36.4042  36.5993
    36.7380  36.7879  36.8369

          k = 0.3519-0.3422-0.2867 ( 40810 PWs)   bands (ev):

   -75.9523 -75.8818 -75.8727 -75.8451 -75.8360 -75.8097 -75.7808 -75.7558
   -75.7531 -75.7449 -75.7415 -61.7013 -61.6857 -61.6767 -61.6617 -61.6409
   -61.6258 -61.5943 -55.8415 -55.8170 -44.3668 -44.3596 -44.3458 -44.3400
   -44.3366 -44.3342 -44.3313 -44.2998 -44.2945 -44.2884 -44.2832 -44.2806
   -44.2711 -44.2681 -44.2674 -44.2632 -44.2625 -44.2592 -44.2571 -44.2549
   -44.2541 -44.2492 -44.2471 -44.2444 -44.2426 -44.2412 -44.2290 -44.2281
   -44.2235 -44.2222 -44.2189 -44.2174 -44.2101 -44.2100 -44.2089 -44.2068
   -44.2060 -44.2041 -44.1927 -44.1912 -44.1870 -44.1850 -44.1799 -44.1757
   -44.1734 -44.1712 -44.1677 -44.1649 -44.1609 -44.1604 -44.1597 -44.1583
   -44.1570 -44.1549 -44.1540 -44.1531 -44.1529 -44.1493 -44.1451 -44.1391
   -44.1356 -44.1341 -44.1338 -44.1282 -44.1281 -44.1264 -44.1247 -44.1230
   -44.1212 -44.1207 -44.1206 -44.1170 -44.1164 -44.1155 -44.1151 -44.1131
   -44.1082 -30.1649 -30.1402 -30.1077 -30.0801 -30.0636 -30.0594 -30.0459
   -30.0130 -29.9960 -29.9846 -29.9739 -29.9715 -29.9547 -29.9476 -29.9382
   -29.9296 -29.9186 -29.9118 -29.8935 -29.8838 -29.8789 -29.8715 -29.8641
   -29.8573 -29.8504 -29.8348 -29.8320 -29.8283 -29.8125 -29.8083 -29.7943
   -29.7927 -29.7849 -27.4602 -27.4500 -27.4460 -27.4385 -27.4334 -27.4305
   -27.4217 -27.4053 -27.3932 -27.3882 -27.3824 -27.3751 -27.3682 -27.3519
   -27.3351 -27.3211 -27.3190 -27.2814 -27.2628 -27.2443 -27.2209 -23.7362
   -23.7191 -23.7018 -23.6789 -23.6450 -23.6078  15.4093  15.7224  16.2816
    16.4037  16.7451  16.8409  16.9406  17.0194  17.1949  17.3903  17.4461
    17.4927  17.5263  17.5836  17.6485  17.7202  17.7618  17.7951  17.8590
    17.9383  17.9550  17.9782  18.0890  18.1640  18.2041  18.2432  18.3086
    18.3717  18.3832  18.4155  18.4647  18.5046  18.5399  18.5999  18.7030
    18.7650  18.7807  18.8083  18.9065  18.9607  19.0489  19.1492  19.1757
    19.1853  19.2449  19.4454  19.4732  19.5396  19.5672  19.6104  19.6602
    19.6869  19.7101  19.7625  19.8047  19.8310  19.8809  19.9381  19.9732
    20.0434  20.2257  20.2846  20.3032  20.3341  20.3734  20.3928  20.4876
    20.6299  20.7634  20.8108  20.8262  20.8512  20.9244  20.9700  20.9783
    21.0427  21.0750  21.1055  21.1491  21.2880  21.3244  21.3666  21.3998
    21.4631  21.4893  21.5885  21.6302  21.7268  21.8070  21.9514  21.9838
    21.9970  22.0968  22.1501  22.1853  22.4685  22.4942  22.5433  22.5722
    22.6019  22.6540  22.6703  22.7306  22.7577  22.7777  22.8770  23.4744
    23.6105  24.5916  25.2275  25.4965  26.0828  26.1460  26.3704  27.0197
    27.5281  27.6488  27.9786  28.6542  28.7461  29.0188  29.2190  29.4069
    29.5214  29.9416  30.6243  30.7771  30.8155  31.0048  31.4999  32.3089
    32.5645  32.8200  33.0374  33.5627  34.0807  34.3194  34.4475  34.5454
    34.7243  34.8891  35.2221  35.5751  35.9619  36.1501  36.4687  36.4894
    36.7057  36.7395  36.9377

          k = 0.3889-0.2881-0.0956 ( 40839 PWs)   bands (ev):

   -75.9523 -75.8818 -75.8727 -75.8451 -75.8360 -75.8097 -75.7808 -75.7558
   -75.7530 -75.7450 -75.7415 -61.7014 -61.6857 -61.6767 -61.6616 -61.6409
   -61.6258 -61.5943 -55.8415 -55.8170 -44.3668 -44.3596 -44.3458 -44.3400
   -44.3366 -44.3342 -44.3313 -44.2998 -44.2945 -44.2884 -44.2832 -44.2806
   -44.2711 -44.2681 -44.2674 -44.2632 -44.2625 -44.2592 -44.2571 -44.2549
   -44.2541 -44.2492 -44.2471 -44.2444 -44.2426 -44.2412 -44.2290 -44.2281
   -44.2235 -44.2222 -44.2189 -44.2174 -44.2101 -44.2100 -44.2089 -44.2068
   -44.2060 -44.2041 -44.1927 -44.1912 -44.1870 -44.1850 -44.1799 -44.1757
   -44.1734 -44.1712 -44.1677 -44.1649 -44.1609 -44.1604 -44.1597 -44.1583
   -44.1570 -44.1549 -44.1540 -44.1531 -44.1529 -44.1493 -44.1451 -44.1391
   -44.1356 -44.1341 -44.1338 -44.1282 -44.1281 -44.1264 -44.1247 -44.1230
   -44.1212 -44.1207 -44.1206 -44.1170 -44.1164 -44.1155 -44.1151 -44.1131
   -44.1082 -30.1655 -30.1390 -30.0980 -30.0750 -30.0660 -30.0600 -30.0534
   -30.0137 -29.9924 -29.9819 -29.9766 -29.9723 -29.9586 -29.9518 -29.9380
   -29.9317 -29.9243 -29.9194 -29.8983 -29.8826 -29.8732 -29.8661 -29.8625
   -29.8547 -29.8478 -29.8384 -29.8300 -29.8261 -29.8117 -29.8072 -29.7948
   -29.7930 -29.7847 -27.4587 -27.4498 -27.4460 -27.4383 -27.4350 -27.4312
   -27.4184 -27.4083 -27.3992 -27.3843 -27.3810 -27.3726 -27.3665 -27.3515
   -27.3361 -27.3274 -27.3163 -27.2838 -27.2653 -27.2402 -27.2193 -23.7362
   -23.7191 -23.7018 -23.6789 -23.6449 -23.6078  15.0385  15.7177  16.2396
    16.4502  16.8687  16.9288  16.9598  17.1757  17.3073  17.4359  17.4942
    17.5160  17.5635  17.6161  17.7125  17.7503  17.8303  17.8804  17.8966
    17.9889  18.0696  18.0838  18.1157  18.1576  18.2026  18.2245  18.2546
    18.3097  18.3969  18.4114  18.4876  18.5079  18.5215  18.6009  18.6716
    18.7507  18.8287  18.8721  18.9226  18.9653  19.0256  19.0746  19.1483
    19.1902  19.2660  19.3487  19.4033  19.4752  19.5170  19.5743  19.5937
    19.6187  19.6535  19.6677  19.7175  19.7483  19.8080  19.8208  19.8668
    19.9105  19.9427  19.9891  20.2534  20.3155  20.3675  20.4937  20.6260
    20.6643  20.7009  20.8040  20.8766  20.9635  21.0028  21.0465  21.0871
    21.1234  21.1872  21.2498  21.2819  21.3091  21.4155  21.4328  21.5204
    21.5489  21.6319  21.7022  21.7426  21.8322  21.9214  21.9368  21.9958
    22.0505  22.0592  22.1072  22.2272  22.2775  22.4511  22.4771  22.5095
    22.5456  22.6225  22.6484  22.6573  22.6896  22.7347  22.8297  23.4459
    23.9676  24.4667  24.6815  25.2233  25.7412  26.0837  26.2211  26.8292
    26.9106  27.0278  27.6462  27.8683  28.8478  29.3334  29.5232  30.3444
    30.7714  30.8753  31.0544  31.4254  31.6519  31.9534  32.2027  32.5575
    32.7492  33.0280  33.0851  33.5761  33.7073  33.7961  34.0670  34.2025
    34.3160  34.5193  35.2011  35.3043  35.8724  35.9754  36.0554  36.1413
    36.2515  36.3012  36.3870

          k = 0.4260-0.0457 0.0956 ( 40820 PWs)   bands (ev):

   -75.9523 -75.8819 -75.8727 -75.8451 -75.8360 -75.8097 -75.7808 -75.7558
   -75.7530 -75.7450 -75.7415 -61.7014 -61.6857 -61.6767 -61.6617 -61.6409
   -61.6258 -61.5943 -55.8415 -55.8170 -44.3668 -44.3596 -44.3458 -44.3400
   -44.3366 -44.3342 -44.3313 -44.2998 -44.2945 -44.2884 -44.2832 -44.2806
   -44.2711 -44.2681 -44.2674 -44.2632 -44.2625 -44.2592 -44.2571 -44.2549
   -44.2541 -44.2492 -44.2471 -44.2444 -44.2426 -44.2412 -44.2290 -44.2281
   -44.2235 -44.2222 -44.2189 -44.2174 -44.2101 -44.2100 -44.2089 -44.2068
   -44.2060 -44.2041 -44.1927 -44.1912 -44.1870 -44.1850 -44.1799 -44.1757
   -44.1734 -44.1712 -44.1677 -44.1649 -44.1609 -44.1604 -44.1597 -44.1583
   -44.1570 -44.1549 -44.1540 -44.1531 -44.1529 -44.1493 -44.1451 -44.1391
   -44.1356 -44.1341 -44.1338 -44.1282 -44.1281 -44.1264 -44.1247 -44.1230
   -44.1212 -44.1207 -44.1206 -44.1170 -44.1164 -44.1155 -44.1151 -44.1131
   -44.1082 -30.1634 -30.1385 -30.1009 -30.0794 -30.0650 -30.0578 -30.0474
   -30.0127 -30.0027 -29.9932 -29.9786 -29.9681 -29.9546 -29.9492 -29.9355
   -29.9286 -29.9214 -29.9122 -29.9029 -29.8839 -29.8732 -29.8687 -29.8637
   -29.8552 -29.8446 -29.8376 -29.8271 -29.8247 -29.8128 -29.8108 -29.7973
   -29.7917 -29.7852 -27.4580 -27.4501 -27.4454 -27.4386 -27.4338 -27.4301
   -27.4219 -27.4045 -27.3961 -27.3848 -27.3818 -27.3796 -27.3693 -27.3511
   -27.3363 -27.3263 -27.3130 -27.2887 -27.2549 -27.2404 -27.2243 -23.7362
   -23.7191 -23.7018 -23.6789 -23.6449 -23.6078  14.8923  15.7281  16.4944
    16.6544  16.8618  16.8860  16.9875  17.0212  17.2020  17.3047  17.3659
    17.4409  17.5105  17.5815  17.6093  17.6960  17.7280  17.7483  17.8308
    17.8929  17.9244  17.9545  17.9941  18.0895  18.3256  18.3496  18.4207
    18.4380  18.5036  18.5723  18.5953  18.6473  18.6836  18.7119  18.7421
    18.7979  18.8155  18.8642  18.8993  18.9465  18.9907  19.0894  19.1662
    19.2360  19.3567  19.3781  19.4122  19.4492  19.4924  19.5311  19.6223
    19.7273  19.8379  19.8571  19.9114  19.9400  19.9658  20.0184  20.0594
    20.1502  20.1761  20.2067  20.2572  20.2838  20.3749  20.4892  20.4997
    20.6717  20.7000  20.7212  20.7589  20.7956  20.8082  20.8412  20.8892
    20.9044  20.9641  21.0569  21.1156  21.1603  21.3444  21.4174  21.5404
    21.5848  21.6216  21.6346  21.6687  21.7131  21.8225  21.9696  22.0315
    22.0680  22.1081  22.1724  22.2868  22.3813  22.4382  22.4764  22.5402
    22.5680  22.7349  22.7767  22.8188  22.9348  22.9698  23.0814  23.2372
    23.3773  23.5710  24.3402  24.4334  25.2337  25.7995  25.8855  26.2372
    27.4336  28.4978  28.8747  29.1521  29.3651  29.5855  29.8226  30.1889
    30.3480  30.4816  30.7436  30.8813  31.4657  32.2849  32.3421  32.7404
    32.8843  33.0456  33.2923  33.5116  33.6940  33.8320  34.1579  34.5555
    34.6381  35.0095  35.0288  35.0807  35.1888  35.3926  35.5798  35.9065
    36.2459  36.3887  36.5214

          k = 0.4630 0.0084 0.2867 ( 40798 PWs)   bands (ev):

   -75.9523 -75.8818 -75.8727 -75.8451 -75.8360 -75.8097 -75.7808 -75.7558
   -75.7531 -75.7449 -75.7415 -61.7013 -61.6857 -61.6767 -61.6617 -61.6409
   -61.6258 -61.5943 -55.8415 -55.8170 -44.3668 -44.3596 -44.3458 -44.3400
   -44.3366 -44.3342 -44.3313 -44.2998 -44.2945 -44.2884 -44.2832 -44.2806
   -44.2711 -44.2681 -44.2674 -44.2632 -44.2625 -44.2592 -44.2571 -44.2549
   -44.2541 -44.2492 -44.2471 -44.2444 -44.2426 -44.2412 -44.2290 -44.2281
   -44.2235 -44.2222 -44.2189 -44.2174 -44.2101 -44.2100 -44.2089 -44.2068
   -44.2060 -44.2041 -44.1927 -44.1912 -44.1870 -44.1850 -44.1799 -44.1757
   -44.1734 -44.1712 -44.1677 -44.1649 -44.1609 -44.1604 -44.1597 -44.1583
   -44.1570 -44.1549 -44.1540 -44.1531 -44.1529 -44.1493 -44.1451 -44.1391
   -44.1356 -44.1341 -44.1338 -44.1282 -44.1281 -44.1264 -44.1247 -44.1230
   -44.1212 -44.1207 -44.1206 -44.1170 -44.1164 -44.1155 -44.1151 -44.1131
   -44.1082 -30.1642 -30.1403 -30.1069 -30.0798 -30.0645 -30.0585 -30.0436
   -30.0159 -30.0026 -29.9923 -29.9764 -29.9661 -29.9547 -29.9446 -29.9315
   -29.9266 -29.9201 -29.9045 -29.8952 -29.8852 -29.8826 -29.8712 -29.8644
   -29.8574 -29.8532 -29.8357 -29.8277 -29.8262 -29.8131 -29.8103 -29.7968
   -29.7917 -29.7852 -27.4592 -27.4500 -27.4456 -27.4381 -27.4333 -27.4315
   -27.4227 -27.4052 -27.3936 -27.3873 -27.3814 -27.3763 -27.3694 -27.3522
   -27.3357 -27.3209 -27.3196 -27.2801 -27.2577 -27.2476 -27.2220 -23.7362
   -23.7191 -23.7018 -23.6789 -23.6450 -23.6077  15.3205  15.8016  15.9855
    16.6526  16.6766  16.8153  16.9418  17.0560  17.2153  17.3057  17.3656
    17.4435  17.5067  17.5934  17.6353  17.6811  17.7607  17.7803  17.8305
    17.8498  17.8692  17.9382  17.9505  18.1290  18.2264  18.2845  18.3477
    18.3784  18.4654  18.5005  18.5296  18.5848  18.6558  18.7173  18.7727
    18.8449  18.8663  18.9448  19.0520  19.0860  19.1768  19.2176  19.2598
    19.2680  19.2830  19.3684  19.3924  19.4054  19.4605  19.5289  19.5532
    19.6165  19.8186  19.8575  19.9415  20.0824  20.0980  20.1235  20.1497
    20.2138  20.2335  20.2752  20.3497  20.3665  20.4059  20.4302  20.5164
    20.5561  20.5727  20.6181  20.6693  20.7581  20.7834  20.8488  20.8794
    20.9049  21.0068  21.1275  21.1679  21.1966  21.2201  21.3205  21.3558
    21.3721  21.5600  21.7052  21.7391  21.7777  21.7954  21.8376  21.8787
    22.0041  22.0560  22.0711  22.2650  22.2845  22.4279  22.4762  22.5429
    22.5571  22.6527  22.6666  22.7440  22.8728  23.0163  23.3158  23.5644
    23.8816  23.9362  24.3074  24.5728  25.3652  26.3074  26.4452  26.8247
    27.4615  27.6055  28.0422  28.5185  28.8404  29.6388  29.8077  30.1743
    30.2947  30.5752  30.9020  31.2335  31.5199  31.6865  32.1168  32.2603
    32.9713  33.2667  33.3540  33.5267  33.7077  33.8267  33.9433  34.1000
    34.2747  34.4874  34.7098  34.8614  35.4635  35.6131  35.8090  35.8800
    36.2415  36.3011  36.4002

          k = 0.3519-0.1539-0.2867 ( 40812 PWs)   bands (ev):

   -75.9523 -75.8818 -75.8727 -75.8451 -75.8360 -75.8097 -75.7808 -75.7558
   -75.7531 -75.7449 -75.7415 -61.7013 -61.6857 -61.6767 -61.6616 -61.6409
   -61.6258 -61.5943 -55.8415 -55.8170 -44.3668 -44.3596 -44.3458 -44.3400
   -44.3366 -44.3342 -44.3313 -44.2998 -44.2945 -44.2884 -44.2832 -44.2806
   -44.2711 -44.2681 -44.2674 -44.2632 -44.2625 -44.2592 -44.2571 -44.2549
   -44.2541 -44.2492 -44.2471 -44.2444 -44.2426 -44.2412 -44.2290 -44.2281
   -44.2235 -44.2222 -44.2189 -44.2174 -44.2101 -44.2100 -44.2089 -44.2068
   -44.2060 -44.2041 -44.1927 -44.1912 -44.1870 -44.1850 -44.1799 -44.1757
   -44.1734 -44.1712 -44.1677 -44.1649 -44.1609 -44.1604 -44.1597 -44.1583
   -44.1570 -44.1549 -44.1540 -44.1531 -44.1529 -44.1493 -44.1451 -44.1391
   -44.1356 -44.1341 -44.1338 -44.1282 -44.1281 -44.1264 -44.1247 -44.1230
   -44.1212 -44.1207 -44.1206 -44.1170 -44.1164 -44.1155 -44.1151 -44.1131
   -44.1082 -30.1653 -30.1414 -30.1032 -30.0756 -30.0681 -30.0591 -30.0452
   -30.0182 -30.0026 -29.9890 -29.9740 -29.9680 -29.9555 -29.9433 -29.9330
   -29.9249 -29.9203 -29.9085 -29.8951 -29.8842 -29.8804 -29.8718 -29.8654
   -29.8573 -29.8535 -29.8350 -29.8299 -29.8258 -29.8120 -29.8094 -29.7969
   -29.7916 -29.7851 -27.4598 -27.4501 -27.4454 -27.4372 -27.4354 -27.4317
   -27.4201 -27.4072 -27.3961 -27.3862 -27.3815 -27.3743 -27.3660 -27.3510
   -27.3356 -27.3281 -27.3140 -27.2796 -27.2652 -27.2449 -27.2198 -23.7362
   -23.7191 -23.7018 -23.6789 -23.6450 -23.6077  15.0743  16.0749  16.3029
    16.4121  16.6453  16.7775  16.9518  17.0668  17.2129  17.3211  17.3777
    17.4933  17.5404  17.6177  17.6604  17.6797  17.7363  17.7902  17.8495
    17.9192  17.9518  17.9645  17.9829  18.0336  18.0960  18.2535  18.2683
    18.3478  18.4173  18.4724  18.5823  18.6151  18.6460  18.7084  18.7749
    18.7904  18.8440  18.9133  18.9185  18.9710  19.0353  19.0690  19.1635
    19.2135  19.3181  19.3543  19.5240  19.5407  19.6471  19.6966  19.7877
    19.8346  19.8758  19.8943  19.9443  19.9687  20.0251  20.0286  20.0692
    20.0901  20.1173  20.1647  20.2192  20.3392  20.4019  20.5990  20.6269
    20.6760  20.6968  20.7159  20.7318  20.7641  20.8223  20.8781  20.9153
    21.0346  21.0744  21.1710  21.2256  21.2504  21.3041  21.3434  21.3733
    21.4591  21.5269  21.5595  21.5926  21.6347  21.7403  21.7629  21.8334
    21.9469  22.0072  22.0516  22.0971  22.1213  22.2237  22.2823  22.3167
    22.3414  22.5288  22.7376  22.7501  22.8896  22.9839  23.3501  23.9855
    24.1528  24.5351  24.7286  24.8187  25.2172  25.2768  26.2663  26.9158
    27.9289  28.0812  28.1200  28.2349  28.8222  28.9922  29.9893  30.0361
    30.4994  30.8012  30.9599  31.2192  31.6180  32.1316  32.4587  32.7811
    32.8960  33.1014  33.2525  33.3419  33.4895  33.6345  33.6996  33.8681
    34.0664  34.3224  34.9622  34.9967  35.2112  35.3043  35.3528  35.4135
    35.5055  35.7796  35.8358

          k = 0.3889-0.0998-0.0956 ( 40832 PWs)   bands (ev):

   -75.9523 -75.8819 -75.8727 -75.8451 -75.8359 -75.8097 -75.7808 -75.7558
   -75.7530 -75.7450 -75.7415 -61.7014 -61.6857 -61.6767 -61.6616 -61.6409
   -61.6258 -61.5943 -55.8415 -55.8170 -44.3668 -44.3596 -44.3458 -44.3400
   -44.3366 -44.3342 -44.3313 -44.2998 -44.2945 -44.2884 -44.2832 -44.2806
   -44.2711 -44.2681 -44.2674 -44.2632 -44.2625 -44.2592 -44.2571 -44.2549
   -44.2541 -44.2492 -44.2471 -44.2444 -44.2426 -44.2412 -44.2290 -44.2281
   -44.2235 -44.2222 -44.2189 -44.2174 -44.2101 -44.2100 -44.2089 -44.2068
   -44.2060 -44.2041 -44.1927 -44.1912 -44.1870 -44.1850 -44.1799 -44.1757
   -44.1734 -44.1712 -44.1677 -44.1649 -44.1609 -44.1604 -44.1597 -44.1583
   -44.1570 -44.1549 -44.1540 -44.1531 -44.1529 -44.1493 -44.1451 -44.1391
   -44.1356 -44.1341 -44.1338 -44.1282 -44.1281 -44.1264 -44.1247 -44.1230
   -44.1212 -44.1207 -44.1206 -44.1170 -44.1164 -44.1155 -44.1151 -44.1131
   -44.1082 -30.1646 -30.1398 -30.0951 -30.0773 -30.0677 -30.0581 -30.0500
   -30.0163 -29.9998 -29.9903 -29.9802 -29.9673 -29.9554 -29.9479 -29.9364
   -29.9282 -29.9216 -29.9161 -29.9009 -29.8837 -29.8732 -29.8665 -29.8625
   -29.8546 -29.8491 -29.8386 -29.8276 -29.8248 -29.8115 -29.8094 -29.7974
   -29.7917 -29.7852 -27.4585 -27.4502 -27.4453 -27.4386 -27.4344 -27.4308
   -27.4189 -27.4075 -27.3994 -27.3834 -27.3806 -27.3750 -27.3688 -27.3502
   -27.3386 -27.3276 -27.3102 -27.2905 -27.2594 -27.2399 -27.2213 -23.7362
   -23.7191 -23.7018 -23.6789 -23.6450 -23.6078  14.7747  15.9596  16.4267
    16.5700  16.7681  16.9118  17.0252  17.2041  17.3229  17.3463  17.4059
    17.4794  17.5721  17.6010  17.6286  17.6618  17.7250  17.7503  17.7765
    17.8399  17.9026  17.9575  18.0189  18.0805  18.1205  18.1918  18.2490
    18.3174  18.3878  18.4288  18.4920  18.6348  18.7169  18.7945  18.8115
    18.8672  18.9092  18.9767  18.9876  19.0823  19.1265  19.1563  19.2291
    19.2468  19.3308  19.3533  19.4336  19.5277  19.5594  19.6180  19.6632
    19.7018  19.7456  19.7693  19.8090  19.8441  19.8791  19.9587  20.0034
    20.0895  20.1468  20.2496  20.3278  20.3464  20.3733  20.4043  20.4988
    20.5179  20.6177  20.7015  20.8463  20.8598  20.9542  20.9993  21.0395
    21.1179  21.1454  21.2119  21.2483  21.2760  21.3635  21.4084  21.4578
    21.5144  21.5309  21.5522  21.5994  21.6384  21.7179  21.7667  21.9316
    21.9745  21.9910  22.0449  22.1005  22.1840  22.2836  22.3971  22.4728
    22.4918  22.5437  22.6698  22.7445  22.8818  23.0100  23.0788  23.3431
    23.7421  24.2559  24.8838  24.9676  25.3939  25.5562  25.8515  25.9321
    26.5338  28.2724  28.9532  29.1672  29.2424  29.5371  30.0681  30.6150
    30.7611  30.9219  31.3672  31.6849  31.8676  32.0201  32.1713  32.3278
    32.5522  32.7659  32.8621  33.0416  33.1965  33.5194  34.0897  34.3971
    34.5686  34.8187  34.8826  34.9250  35.1606  35.2984  35.4052  35.4888
    35.6574  35.8238  36.3414

     the Fermi energy is    22.6158 ev

!    total energy              =  -13567.66722443 Ry
     estimated scf accuracy    <          9.8E-09 Ry
     smearing contrib. (-TS)   =      -0.00621280 Ry
     internal energy E=F+TS    =  -13567.66101162 Ry

     The total energy is F=E-TS. E is the sum of the following terms:
     one-electron contribution =   -9133.02444064 Ry
     hartree contribution      =    4884.89807511 Ry
     xc contribution           =   -1047.66001825 Ry
     ewald contribution        =   -8271.87462785 Ry

     convergence has been achieved in  39 iterations

     Forces acting on atoms (cartesian axes, Ry/au):

     atom    1 type  1   force =     0.00328261    0.00037860   -0.00094586
     atom    2 type  1   force =    -0.00052321    0.00066657   -0.00022151
     atom    3 type  1   force =    -0.00017253   -0.00054358    0.00000317
     atom    4 type  1   force =    -0.00098725   -0.00119486   -0.00233574
     atom    5 type  1   force =    -0.00194744   -0.00203028    0.00356486
     atom    6 type  1   force =     0.00022365   -0.00043738   -0.00007008
     atom    7 type  1   force =    -0.00076601    0.00270542   -0.00032749
     atom    8 type  2   force =    -0.00281029   -0.00057320   -0.00021035
     atom    9 type  2   force =    -0.00270441    0.00030366   -0.00002469
     atom   10 type  2   force =     0.00062370    0.00083142   -0.00061718
     atom   11 type  2   force =     0.00101662    0.00160971   -0.00012935
     atom   12 type  2   force =     0.00124229   -0.00147083    0.00200005
     atom   13 type  2   force =    -0.00039513   -0.00122052    0.00178478
     atom   14 type  2   force =     0.00241794   -0.00058016   -0.00200995
     atom   15 type  2   force =     0.00176931    0.00061839   -0.00149319
     atom   16 type  2   force =    -0.00036608   -0.00074400    0.00087376
     atom   17 type  2   force =     0.00243772   -0.00058717    0.00073832
     atom   18 type  2   force =    -0.00183331    0.00185445    0.00004910
     atom   19 type  3   force =    -0.00116577    0.00098978   -0.00031140
     atom   20 type  3   force =     0.00065760   -0.00057601   -0.00031727

     Total force =     0.010831     Total SCF correction =     0.001082


     Computing stress (Cartesian axis) and pressure

          total   stress  (Ry/bohr**3)                   (kbar)     P=      -28.01
  -0.00027250  -0.00001442   0.00002167          -40.09       -2.12        3.19
  -0.00001442  -0.00011499  -0.00002271           -2.12      -16.92       -3.34
   0.00002167  -0.00002271  -0.00018374            3.19       -3.34      -27.03


     Writing all to output data dir /home/tenant3/nexus-mat/dft/runs/dft-paper-worker-09/jobs/Pt-Pd-Rh-16_Pd7Pt11Rh2/tmp/Pt-Pd-Rh-16_Pd7Pt11Rh2.save/ :
     XML data file, charge density, pseudopotentials, collected wavefunctions

     init_run     :   3149.16s CPU  12575.08s WALL (       1 calls)
     electrons    : 168634.90s CPU 305270.40s WALL (       1 calls)
     forces       :   1139.18s CPU   1141.40s WALL (       1 calls)
     stress       :   3688.86s CPU   3699.11s WALL (       1 calls)

     Called by init_run:
     wfcinit      :   3114.75s CPU  12482.87s WALL (       1 calls)
     potinit      :      1.47s CPU      4.10s WALL (       1 calls)
     hinit0       :      1.01s CPU      2.64s WALL (       1 calls)

     Called by electrons:
     c_bands      : 153162.00s CPU 279134.05s WALL (      39 calls)
     sum_band     :  15051.70s CPU  25329.94s WALL (      39 calls)
     v_of_rho     :     22.38s CPU     43.56s WALL (      40 calls)
     newd         :    425.46s CPU    840.25s WALL (      40 calls)
     mix_rho      :      3.94s CPU      6.50s WALL (      39 calls)

     Called by c_bands:
     init_us_2    :    186.22s CPU    309.63s WALL (    3240 calls)
     cegterg      : 152287.50s CPU 277618.81s WALL (    1560 calls)

     Called by *egterg:
     cdiaghg      :   1066.39s CPU   2187.41s WALL (    3748 calls)
     h_psi        :  56034.90s CPU 102912.08s WALL (    3788 calls)
     s_psi        :  20513.93s CPU  37475.45s WALL (    3788 calls)
     g_psi        :     39.41s CPU     65.76s WALL (    2188 calls)

     Called by h_psi:
     h_psi:calbec :  25684.77s CPU  46013.48s WALL (    3788 calls)
     vloc_psi     :   9781.12s CPU  19274.87s WALL (    3788 calls)
                                        0.00s GPU  (    3788 calls)
     add_vuspsi   :  20520.23s CPU  37314.70s WALL (    3788 calls)

     General routines
     calbec       :  42620.47s CPU  70917.32s WALL (    6028 calls)
     fft          :     15.17s CPU     26.45s WALL (     543 calls)
     ffts         :      0.58s CPU      1.02s WALL (      79 calls)
     fftw         :  10749.80s CPU  20826.69s WALL ( 2447284 calls)
     interpolate  :      1.68s CPU      2.97s WALL (      40 calls)


     PWSCF        :   2d 1h 3m CPU   3d17h38m WALL


   This run was terminated on:  18:39:42  24Jul2026            

=------------------------------------------------------------------------------=
   JOB DONE.
=------------------------------------------------------------------------------=
