
     Program PWSCF v.7.5 starts on 20Jul2026 at 17:49:38 

     This program is part of the open-source Quantum ESPRESSO suite
     for quantum simulation of materials; please cite
         "P. Giannozzi et al., J. Phys.:Condens. Matter 21 395502 (2009);
         "P. Giannozzi et al., J. Phys.:Condens. Matter 29 465901 (2017);
         "P. Giannozzi et al., J. Chem. Phys. 152 154105 (2020);
          URL http://www.quantum-espresso.org", 
     in publications or presentations arising from this work. More details at
     http://www.quantum-espresso.org/quote

     Serial multi-threaded version, running on    1 processor cores
     16387 MiB available memory on the printing compute node when the environment starts

     Reading input from /home/tenant3/nexus-mat/dft/runs/dft-paper-worker-01/jobs/Pt-Pd-09_Pd3Pt/input.in

     Current dimensions of program PWSCF are:
     Max number of different atomic species (ntypx) = 10
     Max number of k-points (npk) =  40000
     Max angular momentum in pseudopotentials (lmaxx) =  4
     file Pt.pbe-spfn-rrkjus_psl.1.0.0.UPF: wavefunction(s)  5P renormalized


     G-vector sticks info
     --------------------
     sticks:   dense  smooth     PW     G-vecs:    dense   smooth      PW
     Sum        3339    1679    487               184583    65267   10365

     Using Slab Decomposition



     bravais-lattice index     =            0
     lattice parameter (alat)  =       5.2203  a.u.
     unit-cell volume          =     418.5374 (a.u.)^3
     number of atoms/cell      =            4
     number of atomic types    =            2
     number of electrons       =        86.00
     number of Kohn-Sham states=           52
     kinetic-energy cutoff     =     110.0000  Ry
     charge density cutoff     =     880.0000  Ry
     scf convergence threshold =      1.0E-08
     mixing beta               =       0.3000
     number of iterations used =            8  plain     mixing
     Exchange-correlation= PBE
                           (   1   4   3   4   0   0   0)

     celldm(1)=   5.220275  celldm(2)=   0.000000  celldm(3)=   0.000000
     celldm(4)=   0.000000  celldm(5)=   0.000000  celldm(6)=   0.000000

     crystal axes: (cart. coord. in units of alat)
               a(1) = (   0.967133   0.000000  -0.254270 )  
               a(2) = (  -0.205120   1.550169  -0.780761 )  
               a(3) = (   0.000000   0.000000   1.962406 )  

     reciprocal axes: (cart. coord. in units 2 pi/alat)
               b(1) = (  1.033984  0.136817 -0.000000 )  
               b(2) = ( -0.000000  0.645091  0.000000 )  
               b(3) = (  0.133974  0.274383  0.509579 )  


     PseudoPot. # 1 for Pd read from file:
     /home/tenant3/nexus-mat/dft/pseudo/SSSP_1.3.0_PBE_precision/Pd_ONCV_PBE-1.0.oncvpsp.upf
     MD5 check sum: eb77f42b51d86fb18e25f68156a31cf1
     Pseudo is Norm-conserving, Zval = 18.0
     Generated using ONCVPSP code by D. R. Hamann
     Using radial grid of 1410 points,  6 beta functions with: 
                l(1) =   0
                l(2) =   0
                l(3) =   1
                l(4) =   1
                l(5) =   2
                l(6) =   2

     PseudoPot. # 2 for Pt read from file:
     /home/tenant3/nexus-mat/dft/pseudo/SSSP_1.3.0_PBE_precision/Pt.pbe-spfn-rrkjus_psl.1.0.0.UPF
     MD5 check sum: ed006ba81d2b6b3b17616bb61ae12f04
     Pseudo is Ultrasoft + core correction, Zval = 32.0
     Generated using "atomic" code by A. Dal Corso  v.5.1
     Using radial grid of 1277 points,  8 beta functions with: 
                l(1) =   0
                l(2) =   0
                l(3) =   1
                l(4) =   1
                l(5) =   2
                l(6) =   2
                l(7) =   3
                l(8) =   3
     Q(r) pseudized with 0 coefficients 


     atomic species   valence    mass     pseudopotential
     Pd               18.00   106.42000     Pd( 1.00)
     Pt               32.00   195.08400     Pt( 1.00)

     No symmetry found



   Cartesian axes

     site n.     atom                  positions (alat units)
         1        Pd     tau(   1) = (   0.6795270   0.0171204   1.6073563  )
         2        Pd     tau(   2) = (   0.8013327   0.9180521   0.1065177  )
         3        Pd     tau(   3) = (   0.4213719   0.1449181   0.6281875  )
         4        Pt     tau(   4) = (   0.0930033   0.7949313   1.3426783  )

     number of k points=   180  Marzari-Vanderbilt smearing, width (Ry)=  0.0200

     Number of k-points >= 100: set verbosity='high' to print them.

     Dense  grid:   184583 G-vectors     FFT dimensions: (  50,  90, 100)

     Smooth grid:    65267 G-vectors     FFT dimensions: (  36,  64,  72)

     Estimated max dynamical RAM per process >       2.88 GB

     Initial potential from superposition of free atoms

     starting charge      85.9988, renormalised to      86.0000
     Starting wfcs are   47 randomized atomic wfcs +    5 random wfcs

     total cpu time spent up to now is       91.4 secs

     Self-consistent Calculation

     iteration #  1     ecut=   110.00 Ry     beta= 0.30
     Davidson diagonalization with overlap
     ethr =  1.00E-02,  avg # of iterations =  3.0

     total cpu time spent up to now is      329.4 secs

     total energy              =   -1792.00114014 Ry
     estimated scf accuracy    <       1.18966955 Ry

     iteration #  2     ecut=   110.00 Ry     beta= 0.30
     Davidson diagonalization with overlap
     ethr =  1.38E-03,  avg # of iterations =  2.1

     total cpu time spent up to now is      799.0 secs

     total energy              =   -1792.33253766 Ry
     estimated scf accuracy    <       2.35515751 Ry

     iteration #  3     ecut=   110.00 Ry     beta= 0.30
     Davidson diagonalization with overlap
     ethr =  1.38E-03,  avg # of iterations =  1.2

     total cpu time spent up to now is     1198.0 secs

     total energy              =   -1792.46001850 Ry
     estimated scf accuracy    <       0.35240910 Ry

     iteration #  4     ecut=   110.00 Ry     beta= 0.30
     Davidson diagonalization with overlap
     ethr =  4.10E-04,  avg # of iterations =  1.0

     total cpu time spent up to now is     1521.3 secs

     total energy              =   -1792.45312282 Ry
     estimated scf accuracy    <       0.08797630 Ry

     iteration #  5     ecut=   110.00 Ry     beta= 0.30
     Davidson diagonalization with overlap
     ethr =  1.02E-04,  avg # of iterations =  1.7

     total cpu time spent up to now is     1788.8 secs

     total energy              =   -1792.46026677 Ry
     estimated scf accuracy    <       0.02888116 Ry

     iteration #  6     ecut=   110.00 Ry     beta= 0.30
     Davidson diagonalization with overlap
     ethr =  3.36E-05,  avg # of iterations =  1.2

     total cpu time spent up to now is     2043.9 secs

     total energy              =   -1792.46720552 Ry
     estimated scf accuracy    <       0.02728877 Ry

     iteration #  7     ecut=   110.00 Ry     beta= 0.30
     Davidson diagonalization with overlap
     ethr =  3.17E-05,  avg # of iterations =  1.0

     total cpu time spent up to now is     2289.6 secs

     total energy              =   -1792.46408142 Ry
     estimated scf accuracy    <       0.02182667 Ry

     iteration #  8     ecut=   110.00 Ry     beta= 0.30
     Davidson diagonalization with overlap
     ethr =  2.54E-05,  avg # of iterations =  1.1

     total cpu time spent up to now is     2524.9 secs

     total energy              =   -1792.46584061 Ry
     estimated scf accuracy    <       0.00007412 Ry

     iteration #  9     ecut=   110.00 Ry     beta= 0.30
     Davidson diagonalization with overlap
     ethr =  8.62E-08,  avg # of iterations =  3.4

     total cpu time spent up to now is     2767.2 secs

     total energy              =   -1792.46580355 Ry
     estimated scf accuracy    <       0.00017994 Ry

     iteration # 10     ecut=   110.00 Ry     beta= 0.30
     Davidson diagonalization with overlap
     ethr =  8.62E-08,  avg # of iterations =  2.1

     total cpu time spent up to now is     2972.0 secs

     total energy              =   -1792.46583513 Ry
     estimated scf accuracy    <       0.00011156 Ry

     iteration # 11     ecut=   110.00 Ry     beta= 0.30
     Davidson diagonalization with overlap
     ethr =  8.62E-08,  avg # of iterations =  1.0

     total cpu time spent up to now is     3135.3 secs

     total energy              =   -1792.46583646 Ry
     estimated scf accuracy    <       0.00001459 Ry

     iteration # 12     ecut=   110.00 Ry     beta= 0.30
     Davidson diagonalization with overlap
     ethr =  1.70E-08,  avg # of iterations =  1.0

     total cpu time spent up to now is     3299.6 secs

     total energy              =   -1792.46583748 Ry
     estimated scf accuracy    <       0.00000003 Ry

     iteration # 13     ecut=   110.00 Ry     beta= 0.30
     Davidson diagonalization with overlap
     ethr =  3.30E-11,  avg # of iterations =  2.0

     total cpu time spent up to now is     3556.9 secs

     End of self-consistent calculation

     Number of k-points >= 100: set verbosity='high' to print the bands.

     the Fermi energy is    20.4754 ev

!    total energy              =   -1792.46583749 Ry
     estimated scf accuracy    <          1.7E-09 Ry
     smearing contrib. (-TS)   =       0.00011667 Ry
     internal energy E=F+TS    =   -1792.46595416 Ry

     The total energy is F=E-TS. E is the sum of the following terms:
     one-electron contribution =   -1047.08265284 Ry
     hartree contribution      =     574.79030052 Ry
     xc contribution           =    -149.88692081 Ry
     ewald contribution        =   -1170.28668102 Ry

     convergence has been achieved in  13 iterations

     Forces acting on atoms (cartesian axes, Ry/au):

     atom    1 type  1   force =    -0.00015074    0.00185330   -0.00075341
     atom    2 type  1   force =    -0.00064553   -0.00180879   -0.00190871
     atom    3 type  1   force =     0.00042309    0.00058646    0.00210907
     atom    4 type  2   force =     0.00037318   -0.00063097    0.00055305

     Total force =     0.004144     Total SCF correction =     0.000032


     Computing stress (Cartesian axis) and pressure

          total   stress  (Ry/bohr**3)                   (kbar)     P=      -11.40
  -0.00005265   0.00000374  -0.00000583           -7.74        0.55       -0.86
   0.00000374  -0.00010474   0.00002659            0.55      -15.41        3.91
  -0.00000583   0.00002659  -0.00007510           -0.86        3.91      -11.05


     Writing all to output data dir /home/tenant3/nexus-mat/dft/runs/dft-paper-worker-01/jobs/Pt-Pd-09_Pd3Pt/tmp/Pt-Pd-09_Pd3Pt.save/ :
     XML data file, charge density, pseudopotentials, collected wavefunctions

     init_run     :     90.19s CPU     91.30s WALL (       1 calls)
     electrons    :   3430.07s CPU   3465.47s WALL (       1 calls)
     forces       :     72.00s CPU     72.74s WALL (       1 calls)
     stress       :    226.31s CPU    228.61s WALL (       1 calls)

     Called by init_run:
     wfcinit      :     87.45s CPU     87.99s WALL (       1 calls)
     potinit      :      0.33s CPU      0.37s WALL (       1 calls)
     hinit0       :      0.70s CPU      0.72s WALL (       1 calls)

     Called by electrons:
     c_bands      :   2952.79s CPU   2975.02s WALL (      13 calls)
     sum_band     :    456.24s CPU    463.09s WALL (      13 calls)
     v_of_rho     :      2.84s CPU      3.12s WALL (      14 calls)
     newd         :     19.29s CPU     25.84s WALL (      14 calls)
     mix_rho      :      0.42s CPU      0.43s WALL (      13 calls)

     Called by c_bands:
     init_us_2    :     29.99s CPU     30.02s WALL (    5220 calls)
     cegterg      :   2898.13s CPU   2919.90s WALL (    2340 calls)

     Called by *egterg:
     cdiaghg      :     15.30s CPU     15.32s WALL (    6261 calls)
     h_psi        :   1589.95s CPU   1600.07s WALL (    6441 calls)
     s_psi        :    286.00s CPU    286.17s WALL (    6441 calls)
     g_psi        :      5.49s CPU      5.50s WALL (    3921 calls)

     Called by h_psi:
     h_psi:calbec :    490.12s CPU    490.20s WALL (    6441 calls)
     vloc_psi     :    811.62s CPU    813.28s WALL (    6441 calls)
                                        0.00s GPU  (    6441 calls)
     add_vuspsi   :    281.56s CPU    281.62s WALL (    6441 calls)

     General routines
     calbec       :    960.30s CPU    960.47s WALL (   11841 calls)
     fft          :      1.96s CPU      1.96s WALL (     205 calls)
     ffts         :      0.06s CPU      0.06s WALL (      27 calls)
     fftw         :    816.51s CPU    818.08s WALL (  662664 calls)
     interpolate  :      0.20s CPU      0.20s WALL (      14 calls)


     PWSCF        :      1h 3m CPU      1h 4m WALL


   This run was terminated on:  18:53:58  20Jul2026            

=------------------------------------------------------------------------------=
   JOB DONE.
=------------------------------------------------------------------------------=
