
     Program PWSCF v.7.5 starts on 22Jul2026 at  0:23: 0 

     This program is part of the open-source Quantum ESPRESSO suite
     for quantum simulation of materials; please cite
         "P. Giannozzi et al., J. Phys.:Condens. Matter 21 395502 (2009);
         "P. Giannozzi et al., J. Phys.:Condens. Matter 29 465901 (2017);
         "P. Giannozzi et al., J. Chem. Phys. 152 154105 (2020);
          URL http://www.quantum-espresso.org", 
     in publications or presentations arising from this work. More details at
     http://www.quantum-espresso.org/quote

     Serial multi-threaded version, running on    1 processor cores
     6685 MiB available memory on the printing compute node when the environment starts

     Reading input from /home/tenant3/nexus-mat/dft/runs/dft-paper-worker-11/jobs/Pt-Pd-Rh-09_Pd2Pt7Rh2/input.in

     Current dimensions of program PWSCF are:
     Max number of different atomic species (ntypx) = 10
     Max number of k-points (npk) =  40000
     Max angular momentum in pseudopotentials (lmaxx) =  4
     file Pt.pbe-spfn-rrkjus_psl.1.0.0.UPF: wavefunction(s)  5P renormalized


     G-vector sticks info
     --------------------
     sticks:   dense  smooth     PW     G-vecs:    dense   smooth      PW
     Sum        7283    3645   1013               500841   177135   25913

     Using Slab Decomposition



     bravais-lattice index     =            0
     lattice parameter (alat)  =       9.1474  a.u.
     unit-cell volume          =    1135.9667 (a.u.)^3
     number of atoms/cell      =           11
     number of atomic types    =            3
     number of electrons       =       294.00
     number of Kohn-Sham states=          176
     kinetic-energy cutoff     =     110.0000  Ry
     charge density cutoff     =     880.0000  Ry
     scf convergence threshold =      1.0E-08
     mixing beta               =       0.3000
     number of iterations used =            8  plain     mixing
     Exchange-correlation= PBE
                           (   1   4   3   4   0   0   0)

     celldm(1)=   9.147396  celldm(2)=   0.000000  celldm(3)=   0.000000
     celldm(4)=   0.000000  celldm(5)=   0.000000  celldm(6)=   0.000000

     crystal axes: (cart. coord. in units of alat)
               a(1) = (   0.991272   0.000000  -0.131831 )  
               a(2) = (  -0.388969   1.160902  -0.394888 )  
               a(3) = (   0.000000   0.000000   1.289688 )  

     reciprocal axes: (cart. coord. in units 2 pi/alat)
               b(1) = (  1.008805  0.338007 -0.000000 )  
               b(2) = ( -0.000000  0.861399  0.000000 )  
               b(3) = (  0.103119  0.298302  0.775381 )  


     PseudoPot. # 1 for Pd read from file:
     /home/tenant3/nexus-mat/dft/pseudo/SSSP_1.3.0_PBE_precision/Pd_ONCV_PBE-1.0.oncvpsp.upf
     MD5 check sum: eb77f42b51d86fb18e25f68156a31cf1
     Pseudo is Norm-conserving, Zval = 18.0
     Generated using ONCVPSP code by D. R. Hamann
     Using radial grid of 1410 points,  6 beta functions with: 
                l(1) =   0
                l(2) =   0
                l(3) =   1
                l(4) =   1
                l(5) =   2
                l(6) =   2

     PseudoPot. # 2 for Pt read from file:
     /home/tenant3/nexus-mat/dft/pseudo/SSSP_1.3.0_PBE_precision/Pt.pbe-spfn-rrkjus_psl.1.0.0.UPF
     MD5 check sum: ed006ba81d2b6b3b17616bb61ae12f04
     Pseudo is Ultrasoft + core correction, Zval = 32.0
     Generated using "atomic" code by A. Dal Corso  v.5.1
     Using radial grid of 1277 points,  8 beta functions with: 
                l(1) =   0
                l(2) =   0
                l(3) =   1
                l(4) =   1
                l(5) =   2
                l(6) =   2
                l(7) =   3
                l(8) =   3
     Q(r) pseudized with 0 coefficients 


     PseudoPot. # 3 for Rh read from file:
     /home/tenant3/nexus-mat/dft/pseudo/SSSP_1.3.0_PBE_precision/Rh_ONCV_PBE-1.0.oncvpsp.upf
     MD5 check sum: ba07c69523b14cacd10683cd4c4284c1
     Pseudo is Norm-conserving, Zval = 17.0
     Generated using ONCVPSP code by D. R. Hamann
     Using radial grid of 1442 points,  6 beta functions with: 
                l(1) =   0
                l(2) =   0
                l(3) =   1
                l(4) =   1
                l(5) =   2
                l(6) =   2

     atomic species   valence    mass     pseudopotential
     Pd               18.00   106.42000     Pd( 1.00)
     Pt               32.00   195.08400     Pt( 1.00)
     Rh               17.00   102.90549     Rh( 1.00)

     No symmetry found



   Cartesian axes

     site n.     atom                  positions (alat units)
         1        Pd     tau(   1) = (   0.1394232   0.7381522   0.1238267  )
         2        Pd     tau(   2) = (   0.7083228   0.1036906   0.6463233  )
         3        Pt     tau(   3) = (   0.3738612   0.8403527   0.6435716  )
         4        Pt     tau(   4) = (  -0.1519466   1.0556027   0.5126077  )
         5        Pt     tau(   5) = (   0.4743646   0.0054042   0.1246881  )
         6        Pt     tau(   6) = (   0.6598349   0.5276709   0.2481874  )
         7        Pt     tau(   7) = (   0.6082252   0.9510811  -0.1386728  )
         8        Pt     tau(   8) = (   0.1895335   0.3147898   0.5161121  )
         9        Pt     tau(   9) = (  -0.0953349   0.6276224   0.9031708  )
        10        Rh     tau(  10) = (   0.4242579   0.4194506   1.0309252  )
        11        Rh     tau(  11) = (  -0.0473385   0.2110934   0.0009578  )

     number of k points=    75  Marzari-Vanderbilt smearing, width (Ry)=  0.0200
                       cart. coord. in units 2pi/alat
        k(    1) = (   0.0840671   0.0281673   0.0000000), wk =   0.0266667
        k(    2) = (   0.1046909   0.0878276   0.1550762), wk =   0.0266667
        k(    3) = (   0.1253147   0.1474880   0.3101525), wk =   0.0266667
        k(    4) = (   0.0428194  -0.0911534  -0.3101525), wk =   0.0266667
        k(    5) = (   0.0634432  -0.0314931  -0.1550762), wk =   0.0266667
        k(    6) = (   0.0840671   0.2004472   0.0000000), wk =   0.0266667
        k(    7) = (   0.1046909   0.2601075   0.1550762), wk =   0.0266667
        k(    8) = (   0.1253147   0.3197679   0.3101525), wk =   0.0266667
        k(    9) = (   0.0428194   0.0811265  -0.3101525), wk =   0.0266667
        k(   10) = (   0.0634432   0.1407868  -0.1550762), wk =   0.0266667
        k(   11) = (   0.0840671   0.3727270   0.0000000), wk =   0.0266667
        k(   12) = (   0.1046909   0.4323874   0.1550762), wk =   0.0266667
        k(   13) = (   0.1253147   0.4920477   0.3101525), wk =   0.0266667
        k(   14) = (   0.0428194   0.2534064  -0.3101525), wk =   0.0266667
        k(   15) = (   0.0634432   0.3130667  -0.1550762), wk =   0.0266667
        k(   16) = (   0.0840671  -0.3163925   0.0000000), wk =   0.0266667
        k(   17) = (   0.1046909  -0.2567321   0.1550762), wk =   0.0266667
        k(   18) = (   0.1253147  -0.1970718   0.3101525), wk =   0.0266667
        k(   19) = (   0.0428194  -0.4357132  -0.3101525), wk =   0.0266667
        k(   20) = (   0.0634432  -0.3760528  -0.1550762), wk =   0.0266667
        k(   21) = (   0.0840671  -0.1441126   0.0000000), wk =   0.0266667
        k(   22) = (   0.1046909  -0.0844522   0.1550762), wk =   0.0266667
        k(   23) = (   0.1253147  -0.0247919   0.3101525), wk =   0.0266667
        k(   24) = (   0.0428194  -0.2634333  -0.3101525), wk =   0.0266667
        k(   25) = (   0.0634432  -0.2037729  -0.1550762), wk =   0.0266667
        k(   26) = (   0.2522012   0.0845019   0.0000000), wk =   0.0266667
        k(   27) = (   0.2728250   0.1441622   0.1550762), wk =   0.0266667
        k(   28) = (   0.2934488   0.2038226   0.3101525), wk =   0.0266667
        k(   29) = (   0.2109535  -0.0348188  -0.3101525), wk =   0.0266667
        k(   30) = (   0.2315773   0.0248415  -0.1550762), wk =   0.0266667
        k(   31) = (   0.2522012   0.2567817   0.0000000), wk =   0.0266667
        k(   32) = (   0.2728250   0.3164421   0.1550762), wk =   0.0266667
        k(   33) = (   0.2934488   0.3761024   0.3101525), wk =   0.0266667
        k(   34) = (   0.2109535   0.1374611  -0.3101525), wk =   0.0266667
        k(   35) = (   0.2315773   0.1971214  -0.1550762), wk =   0.0266667
        k(   36) = (   0.2522012   0.4290616   0.0000000), wk =   0.0266667
        k(   37) = (   0.2728250   0.4887220   0.1550762), wk =   0.0266667
        k(   38) = (   0.2934488   0.5483823   0.3101525), wk =   0.0266667
        k(   39) = (   0.2109535   0.3097409  -0.3101525), wk =   0.0266667
        k(   40) = (   0.2315773   0.3694013  -0.1550762), wk =   0.0266667
        k(   41) = (   0.2522012  -0.2600579   0.0000000), wk =   0.0266667
        k(   42) = (   0.2728250  -0.2003976   0.1550762), wk =   0.0266667
        k(   43) = (   0.2934488  -0.1407372   0.3101525), wk =   0.0266667
        k(   44) = (   0.2109535  -0.3793786  -0.3101525), wk =   0.0266667
        k(   45) = (   0.2315773  -0.3197182  -0.1550762), wk =   0.0266667
        k(   46) = (   0.2522012  -0.0877780   0.0000000), wk =   0.0266667
        k(   47) = (   0.2728250  -0.0281177   0.1550762), wk =   0.0266667
        k(   48) = (   0.2934488   0.0315427   0.3101525), wk =   0.0266667
        k(   49) = (   0.2109535  -0.2070987  -0.3101525), wk =   0.0266667
        k(   50) = (   0.2315773  -0.1474384  -0.1550762), wk =   0.0266667
        k(   51) = (   0.4203353   0.1408364   0.0000000), wk =   0.0266667
        k(   52) = (   0.4409591   0.2004968   0.1550762), wk =   0.0266667
        k(   53) = (   0.4615829   0.2601571   0.3101525), wk =   0.0266667
        k(   54) = (   0.3790876   0.0215157  -0.3101525), wk =   0.0266667
        k(   55) = (   0.3997114   0.0811761  -0.1550762), wk =   0.0266667
        k(   56) = (   0.4203353   0.3131163   0.0000000), wk =   0.0266667
        k(   57) = (   0.4409591   0.3727767   0.1550762), wk =   0.0266667
        k(   58) = (   0.4615829   0.4324370   0.3101525), wk =   0.0266667
        k(   59) = (   0.3790876   0.1937956  -0.3101525), wk =   0.0266667
        k(   60) = (   0.3997114   0.2534560  -0.1550762), wk =   0.0266667
        k(   61) = (   0.4203353   0.4853962   0.0000000), wk =   0.0266667
        k(   62) = (   0.4409591   0.5450565   0.1550762), wk =   0.0266667
        k(   63) = (   0.4615829   0.6047169   0.3101525), wk =   0.0266667
        k(   64) = (   0.3790876   0.3660755  -0.3101525), wk =   0.0266667
        k(   65) = (   0.3997114   0.4257359  -0.1550762), wk =   0.0266667
        k(   66) = (   0.4203353  -0.2037233   0.0000000), wk =   0.0266667
        k(   67) = (   0.4409591  -0.1440630   0.1550762), wk =   0.0266667
        k(   68) = (   0.4615829  -0.0844026   0.3101525), wk =   0.0266667
        k(   69) = (   0.3790876  -0.3230440  -0.3101525), wk =   0.0266667
        k(   70) = (   0.3997114  -0.2633837  -0.1550762), wk =   0.0266667
        k(   71) = (   0.4203353  -0.0314434   0.0000000), wk =   0.0266667
        k(   72) = (   0.4409591   0.0282169   0.1550762), wk =   0.0266667
        k(   73) = (   0.4615829   0.0878773   0.3101525), wk =   0.0266667
        k(   74) = (   0.3790876  -0.1507641  -0.3101525), wk =   0.0266667
        k(   75) = (   0.3997114  -0.0911038  -0.1550762), wk =   0.0266667

     Dense  grid:   500841 G-vectors     FFT dimensions: (  90, 120, 120)

     Smooth grid:   177135 G-vectors     FFT dimensions: (  64,  80,  80)

     Estimated max dynamical RAM per process >       9.19 GB

     Initial potential from superposition of free atoms

     starting charge     293.9975, renormalised to     294.0000
     Starting wfcs are  159 randomized atomic wfcs +   17 random wfcs

     total cpu time spent up to now is     2394.8 secs

     Self-consistent Calculation

     iteration #  1     ecut=   110.00 Ry     beta= 0.30
     Davidson diagonalization with overlap
     ethr =  1.00E-02,  avg # of iterations =  3.0

     Threshold (ethr) on eigenvalues was too large:
     Diagonalizing with lowered threshold

     Davidson diagonalization with overlap
     ethr =  9.41E-04,  avg # of iterations =  1.0

     total cpu time spent up to now is    16745.1 secs

     total energy              =   -8169.14175463 Ry
     estimated scf accuracy    <       2.77296387 Ry

     iteration #  2     ecut=   110.00 Ry     beta= 0.30
     Davidson diagonalization with overlap
     ethr =  9.43E-04,  avg # of iterations =  2.5

     total cpu time spent up to now is    24737.9 secs

     total energy              =   -8169.05247817 Ry
     estimated scf accuracy    <      17.44813428 Ry

     iteration #  3     ecut=   110.00 Ry     beta= 0.30
     Davidson diagonalization with overlap
     ethr =  9.43E-04,  avg # of iterations =  2.0

     total cpu time spent up to now is    32146.8 secs

     total energy              =   -8170.00245631 Ry
     estimated scf accuracy    <       3.14895865 Ry

     iteration #  4     ecut=   110.00 Ry     beta= 0.30
     Davidson diagonalization with overlap
     ethr =  9.43E-04,  avg # of iterations =  1.0

     total cpu time spent up to now is    38141.9 secs

     total energy              =   -8170.22303542 Ry
     estimated scf accuracy    <       0.06362337 Ry

     iteration #  5     ecut=   110.00 Ry     beta= 0.30
     Davidson diagonalization with overlap
     ethr =  2.16E-05,  avg # of iterations =  2.3

     total cpu time spent up to now is    43982.1 secs

     total energy              =   -8170.22223662 Ry
     estimated scf accuracy    <       0.02560400 Ry

     iteration #  6     ecut=   110.00 Ry     beta= 0.30
     Davidson diagonalization with overlap
     ethr =  8.71E-06,  avg # of iterations =  2.1

     total cpu time spent up to now is    49285.4 secs

     total energy              =   -8170.22117029 Ry
     estimated scf accuracy    <       0.01376676 Ry

     iteration #  7     ecut=   110.00 Ry     beta= 0.30
     Davidson diagonalization with overlap
     c_bands:  1 eigenvalues not converged
     ethr =  4.68E-06,  avg # of iterations =  3.4

     total cpu time spent up to now is    54951.8 secs

     total energy              =   -8170.22107026 Ry
     estimated scf accuracy    <       0.01709316 Ry

     iteration #  8     ecut=   110.00 Ry     beta= 0.30
     Davidson diagonalization with overlap
     ethr =  4.68E-06,  avg # of iterations =  1.1

     total cpu time spent up to now is    60012.4 secs

     total energy              =   -8170.22195529 Ry
     estimated scf accuracy    <       0.00545069 Ry

     iteration #  9     ecut=   110.00 Ry     beta= 0.30
     Davidson diagonalization with overlap
     ethr =  1.85E-06,  avg # of iterations =  2.2

     total cpu time spent up to now is    65566.5 secs

     total energy              =   -8170.22221394 Ry
     estimated scf accuracy    <       0.00149350 Ry

     iteration # 10     ecut=   110.00 Ry     beta= 0.30
     Davidson diagonalization with overlap
     ethr =  5.08E-07,  avg # of iterations =  1.1

     total cpu time spent up to now is    70652.4 secs

     total energy              =   -8170.22227645 Ry
     estimated scf accuracy    <       0.00051044 Ry

     iteration # 11     ecut=   110.00 Ry     beta= 0.30
     Davidson diagonalization with overlap
     ethr =  1.74E-07,  avg # of iterations =  1.1

     total cpu time spent up to now is    75746.7 secs

     total energy              =   -8170.22230058 Ry
     estimated scf accuracy    <       0.00011204 Ry

     iteration # 12     ecut=   110.00 Ry     beta= 0.30
     Davidson diagonalization with overlap
     ethr =  3.81E-08,  avg # of iterations =  1.1

     total cpu time spent up to now is    80807.8 secs

     total energy              =   -8170.22230467 Ry
     estimated scf accuracy    <       0.00006941 Ry

     iteration # 13     ecut=   110.00 Ry     beta= 0.30
     Davidson diagonalization with overlap
     ethr =  2.36E-08,  avg # of iterations =  1.0

     total cpu time spent up to now is    85842.4 secs

     total energy              =   -8170.22231109 Ry
     estimated scf accuracy    <       0.00000647 Ry

     iteration # 14     ecut=   110.00 Ry     beta= 0.30
     Davidson diagonalization with overlap
     ethr =  2.20E-09,  avg # of iterations =  1.0

     total cpu time spent up to now is    90587.6 secs

     total energy              =   -8170.22231089 Ry
     estimated scf accuracy    <       0.00000638 Ry

     iteration # 15     ecut=   110.00 Ry     beta= 0.30
     Davidson diagonalization with overlap
     ethr =  2.17E-09,  avg # of iterations =  1.0

     total cpu time spent up to now is    94580.8 secs

     total energy              =   -8170.22231129 Ry
     estimated scf accuracy    <       0.00000350 Ry

     iteration # 16     ecut=   110.00 Ry     beta= 0.30
     Davidson diagonalization with overlap
     ethr =  1.19E-09,  avg # of iterations =  1.0

     total cpu time spent up to now is    98569.1 secs

     total energy              =   -8170.22231157 Ry
     estimated scf accuracy    <       0.00000051 Ry

     iteration # 17     ecut=   110.00 Ry     beta= 0.30
     Davidson diagonalization with overlap
     ethr =  1.72E-10,  avg # of iterations =  1.1

     total cpu time spent up to now is   102597.2 secs

     total energy              =   -8170.22231156 Ry
     estimated scf accuracy    <       0.00000090 Ry

     iteration # 18     ecut=   110.00 Ry     beta= 0.30
     Davidson diagonalization with overlap
     ethr =  1.72E-10,  avg # of iterations =  1.0

     total cpu time spent up to now is   106599.9 secs

     total energy              =   -8170.22231161 Ry
     estimated scf accuracy    <       0.00000012 Ry

     iteration # 19     ecut=   110.00 Ry     beta= 0.30
     Davidson diagonalization with overlap
     ethr =  4.03E-11,  avg # of iterations =  1.1

     total cpu time spent up to now is   110629.7 secs

     total energy              =   -8170.22231161 Ry
     estimated scf accuracy    <       0.00000015 Ry

     iteration # 20     ecut=   110.00 Ry     beta= 0.30
     Davidson diagonalization with overlap
     ethr =  4.03E-11,  avg # of iterations =  1.0

     total cpu time spent up to now is   114617.1 secs

     total energy              =   -8170.22231162 Ry
     estimated scf accuracy    <       0.00000006 Ry

     iteration # 21     ecut=   110.00 Ry     beta= 0.30
     Davidson diagonalization with overlap
     ethr =  2.06E-11,  avg # of iterations =  1.0

     total cpu time spent up to now is   118616.5 secs

     total energy              =   -8170.22231162 Ry
     estimated scf accuracy    <       0.00000004 Ry

     iteration # 22     ecut=   110.00 Ry     beta= 0.30
     Davidson diagonalization with overlap
     ethr =  1.21E-11,  avg # of iterations =  1.0

     total cpu time spent up to now is   122605.7 secs

     total energy              =   -8170.22231162 Ry
     estimated scf accuracy    <       0.00000001 Ry

     iteration # 23     ecut=   110.00 Ry     beta= 0.30
     Davidson diagonalization with overlap
     ethr =  3.58E-12,  avg # of iterations =  1.1

     total cpu time spent up to now is   126687.3 secs

     total energy              =   -8170.22231162 Ry
     estimated scf accuracy    <       0.00000001 Ry

     iteration # 24     ecut=   110.00 Ry     beta= 0.30
     Davidson diagonalization with overlap
     ethr =  3.58E-12,  avg # of iterations =  1.0

     total cpu time spent up to now is   130680.9 secs

     End of self-consistent calculation

          k = 0.0841 0.0282 0.0000 ( 22135 PWs)   bands (ev):

   -74.8561 -74.8329 -74.8164 -74.7931 -74.7874 -74.7823 -74.7763 -60.7018
   -60.6933 -54.8076 -54.7843 -43.2606 -43.2509 -43.2438 -43.2374 -43.2369
   -43.2330 -43.2299 -43.2295 -43.2276 -43.2263 -43.2198 -43.2161 -43.2149
   -43.2072 -43.2049 -43.2037 -43.2017 -43.2013 -43.2004 -43.1975 -43.1960
   -43.1954 -43.1935 -43.1933 -43.1924 -43.1907 -43.1858 -43.1822 -43.1819
   -43.1812 -43.1786 -43.1761 -43.1695 -43.1690 -43.1642 -43.1635 -43.1616
   -43.1608 -43.1602 -43.1593 -43.1587 -43.1578 -43.1567 -43.1556 -43.1554
   -43.1445 -43.1424 -43.1382 -43.1364 -29.1099 -29.0845 -29.0692 -29.0453
   -29.0327 -28.9991 -28.9860 -28.9713 -28.9451 -28.9309 -28.9174 -28.9113
   -28.8905 -28.8797 -28.8541 -28.8419 -28.8203 -28.8053 -28.8021 -28.7923
   -28.7887 -26.4551 -26.4344 -26.4236 -26.4156 -26.4053 -26.3505 -22.7611
   -22.7131 -22.6482 -22.6317 -22.6165 -22.5498  14.6550  17.7153  17.9319
    18.0639  18.1130  18.1602  18.2165  18.3660  18.4588  18.5572  18.6392
    18.7400  18.7983  19.1229  19.2476  19.4019  19.4314  19.5191  19.5353
    19.7114  19.8767  19.9712  20.0615  20.1999  20.3129  20.3544  20.4286
    20.4946  20.5665  20.6710  20.7202  20.8249  20.9090  21.0198  21.2271
    21.2791  21.4068  21.6419  21.7371  21.8000  22.0029  22.2454  22.3340
    22.3914  22.5693  22.8034  22.8797  22.9099  23.0638  23.1620  23.2995
    23.4358  23.5086  23.6072  23.7143  23.9837  24.4629  24.6656  25.1869
    25.6566  26.0600  26.4568  26.6855  27.8066  28.5409  28.6589  29.7818
    30.9785  31.8832  32.3405  33.1469  33.6119  34.0580  34.3120  34.5429
    35.1075  35.4857  36.0965  36.7082  36.9379  37.1690  37.4703  37.9886

          k = 0.1047 0.0878 0.1551 ( 22153 PWs)   bands (ev):

   -74.8560 -74.8330 -74.8164 -74.7939 -74.7869 -74.7821 -74.7763 -60.7018
   -60.6933 -54.8076 -54.7843 -43.2606 -43.2509 -43.2438 -43.2374 -43.2369
   -43.2330 -43.2299 -43.2295 -43.2276 -43.2263 -43.2198 -43.2161 -43.2149
   -43.2072 -43.2049 -43.2037 -43.2017 -43.2013 -43.2004 -43.1975 -43.1960
   -43.1954 -43.1935 -43.1933 -43.1924 -43.1907 -43.1858 -43.1822 -43.1819
   -43.1812 -43.1786 -43.1761 -43.1695 -43.1690 -43.1642 -43.1635 -43.1616
   -43.1608 -43.1602 -43.1593 -43.1587 -43.1578 -43.1567 -43.1556 -43.1554
   -43.1445 -43.1424 -43.1382 -43.1364 -29.1207 -29.0892 -29.0743 -29.0395
   -29.0136 -29.0082 -28.9820 -28.9714 -28.9453 -28.9241 -28.9162 -28.9003
   -28.8896 -28.8769 -28.8627 -28.8420 -28.8284 -28.8111 -28.8047 -28.7914
   -28.7859 -26.4552 -26.4341 -26.4238 -26.4155 -26.4054 -26.3505 -22.7610
   -22.7130 -22.6484 -22.6322 -22.6163 -22.5498  14.9424  17.2662  17.6930
    17.8904  17.9965  18.0988  18.1885  18.2953  18.4962  18.5837  18.7898
    18.9091  19.1455  19.1919  19.2708  19.3102  19.4250  19.4962  19.5787
    19.6423  19.7229  19.8436  19.9556  20.1134  20.2942  20.4339  20.4880
    20.5972  20.6248  20.6862  20.7380  20.8274  20.9758  21.1484  21.2267
    21.4882  21.5093  21.5360  21.8921  21.8994  22.0303  22.1249  22.2440
    22.3943  22.4694  22.5592  22.6632  22.8882  23.2549  23.3325  23.3785
    23.4629  23.5031  23.5540  23.6900  23.7614  23.9809  24.1599  25.9189
    26.1664  26.5854  27.0052  27.5748  27.9017  28.0314  29.1248  29.8792
    30.2014  30.6922  31.1698  32.6301  33.1180  34.3249  34.5862  34.9008
    35.0592  35.4805  35.9840  36.0803  36.5216  36.9940  37.7561  38.2612

          k = 0.1253 0.1475 0.3102 ( 22158 PWs)   bands (ev):

   -74.8559 -74.8330 -74.8164 -74.7947 -74.7865 -74.7818 -74.7763 -60.7018
   -60.6933 -54.8076 -54.7843 -43.2606 -43.2509 -43.2438 -43.2374 -43.2369
   -43.2330 -43.2299 -43.2295 -43.2276 -43.2263 -43.2198 -43.2161 -43.2149
   -43.2072 -43.2049 -43.2037 -43.2017 -43.2013 -43.2004 -43.1975 -43.1960
   -43.1954 -43.1935 -43.1933 -43.1924 -43.1907 -43.1858 -43.1822 -43.1819
   -43.1812 -43.1786 -43.1761 -43.1695 -43.1690 -43.1642 -43.1635 -43.1616
   -43.1608 -43.1602 -43.1593 -43.1587 -43.1578 -43.1567 -43.1556 -43.1554
   -43.1445 -43.1424 -43.1382 -43.1364 -29.1241 -29.1054 -29.0700 -29.0280
   -29.0208 -29.0014 -28.9779 -28.9659 -28.9521 -28.9221 -28.9038 -28.8954
   -28.8803 -28.8751 -28.8678 -28.8522 -28.8400 -28.8175 -28.8049 -28.7899
   -28.7830 -26.4554 -26.4337 -26.4242 -26.4153 -26.4055 -26.3504 -22.7609
   -22.7128 -22.6486 -22.6326 -22.6160 -22.5498  15.6311  16.3759  17.4082
    17.7376  17.9703  18.1124  18.2427  18.2559  18.4270  18.5450  18.6065
    18.9352  19.0754  19.1679  19.2438  19.3976  19.4609  19.6115  19.6980
    19.8046  19.8985  20.0470  20.1300  20.1922  20.2649  20.4624  20.5638
    20.6531  20.7325  20.7863  20.8073  20.8750  20.9963  21.1378  21.2129
    21.2656  21.3722  21.5241  21.6937  21.7601  21.8350  21.9266  22.1369
    22.3781  22.4901  22.6070  22.6659  22.7923  23.0844  23.3087  23.4331
    23.5797  23.6149  23.6700  23.7274  23.8145  24.2204  24.5894  25.3054
    26.2518  26.5105  27.6740  28.0720  28.2725  28.5792  29.2211  29.4946
    30.1305  30.5571  31.3777  31.8182  32.5378  33.1052  33.7252  34.2061
    35.5173  35.6748  36.0241  36.1187  36.6920  37.5820  38.1430  38.2476

          k = 0.0428-0.0912-0.3102 ( 22130 PWs)   bands (ev):

   -74.8559 -74.8330 -74.8164 -74.7945 -74.7866 -74.7818 -74.7763 -60.7018
   -60.6933 -54.8076 -54.7843 -43.2606 -43.2509 -43.2438 -43.2374 -43.2369
   -43.2330 -43.2299 -43.2295 -43.2276 -43.2263 -43.2198 -43.2161 -43.2149
   -43.2072 -43.2049 -43.2037 -43.2017 -43.2013 -43.2004 -43.1975 -43.1960
   -43.1954 -43.1935 -43.1933 -43.1924 -43.1907 -43.1858 -43.1822 -43.1819
   -43.1812 -43.1786 -43.1761 -43.1695 -43.1690 -43.1642 -43.1635 -43.1616
   -43.1608 -43.1602 -43.1593 -43.1587 -43.1578 -43.1567 -43.1556 -43.1554
   -43.1445 -43.1424 -43.1382 -43.1364 -29.1239 -29.1021 -29.0635 -29.0356
   -29.0193 -28.9946 -28.9877 -28.9690 -28.9480 -28.9249 -28.9083 -28.9000
   -28.8886 -28.8751 -28.8598 -28.8449 -28.8370 -28.8160 -28.8049 -28.7912
   -28.7832 -26.4554 -26.4337 -26.4242 -26.4154 -26.4055 -26.3504 -22.7610
   -22.7129 -22.6485 -22.6324 -22.6161 -22.5498  15.4374  16.5957  17.3976
    17.7203  17.8967  18.0944  18.2356  18.3382  18.5825  18.6558  18.7156
    18.7693  19.0581  19.2036  19.3253  19.3885  19.4754  19.5211  19.7927
    19.8384  19.9887  20.0194  20.0381  20.2416  20.2717  20.3313  20.4195
    20.5558  20.6257  20.7287  20.8328  20.9277  20.9701  21.0635  21.1030
    21.2248  21.5012  21.5823  21.7388  21.7460  21.8869  21.9406  22.1173
    22.2178  22.2838  22.5260  22.9887  23.1323  23.1950  23.3147  23.5212
    23.5781  23.6999  23.7297  23.8038  23.9544  24.0833  24.6801  25.1285
    25.5078  26.4670  26.8207  28.0532  28.3945  28.6306  29.4663  29.8309
    30.2779  30.7208  31.3879  32.1682  32.6551  33.4674  34.2408  34.7265
    35.2328  35.6795  35.8821  36.0037  37.2243  37.2964  37.5456  37.8817

          k = 0.0634-0.0315-0.1551 ( 22150 PWs)   bands (ev):

   -74.8561 -74.8330 -74.8164 -74.7936 -74.7871 -74.7821 -74.7763 -60.7018
   -60.6933 -54.8076 -54.7843 -43.2606 -43.2509 -43.2438 -43.2374 -43.2369
   -43.2330 -43.2299 -43.2295 -43.2276 -43.2263 -43.2198 -43.2161 -43.2149
   -43.2072 -43.2049 -43.2037 -43.2017 -43.2013 -43.2004 -43.1975 -43.1960
   -43.1954 -43.1935 -43.1933 -43.1924 -43.1907 -43.1858 -43.1822 -43.1819
   -43.1812 -43.1786 -43.1761 -43.1695 -43.1690 -43.1642 -43.1635 -43.1616
   -43.1608 -43.1602 -43.1593 -43.1587 -43.1578 -43.1567 -43.1556 -43.1554
   -43.1445 -43.1424 -43.1382 -43.1364 -29.1177 -29.0859 -29.0641 -29.0467
   -29.0165 -29.0076 -28.9852 -28.9682 -28.9555 -28.9297 -28.9171 -28.9028
   -28.8946 -28.8780 -28.8508 -28.8417 -28.8245 -28.8076 -28.8039 -28.7934
   -28.7863 -26.4553 -26.4342 -26.4238 -26.4156 -26.4053 -26.3504 -22.7611
   -22.7131 -22.6483 -22.6319 -22.6164 -22.5498  14.8308  17.4090  17.6771
    17.8688  18.0138  18.1245  18.1829  18.4574  18.5467  18.6777  18.7124
    18.7930  18.9386  19.0817  19.2568  19.3720  19.5407  19.6906  19.7657
    19.8014  19.9062  19.9815  20.1026  20.1520  20.2354  20.2620  20.3451
    20.4762  20.5117  20.5664  20.6126  20.7311  20.8753  20.9848  21.2503
    21.3165  21.3410  21.4666  21.9195  22.0941  22.1095  22.2057  22.3067
    22.3781  22.4067  22.5176  22.5828  23.0456  23.2149  23.3623  23.5081
    23.5922  23.6291  23.7368  23.7438  23.9311  23.9909  24.6618  25.5181
    25.6358  25.8589  26.5860  27.1259  27.6678  28.0537  28.6940  30.3437
    31.2457  31.5982  32.3451  32.6898  33.4540  33.9310  34.5212  34.8671
    35.3404  35.9206  36.0820  36.2996  36.4329  36.7785  37.0443  37.4988

          k = 0.0841 0.2004 0.0000 ( 22146 PWs)   bands (ev):

   -74.8560 -74.8330 -74.8164 -74.7930 -74.7874 -74.7833 -74.7754 -60.7018
   -60.6933 -54.8076 -54.7843 -43.2606 -43.2509 -43.2438 -43.2374 -43.2369
   -43.2330 -43.2299 -43.2295 -43.2276 -43.2263 -43.2198 -43.2161 -43.2149
   -43.2072 -43.2049 -43.2037 -43.2017 -43.2013 -43.2004 -43.1975 -43.1960
   -43.1954 -43.1935 -43.1933 -43.1924 -43.1907 -43.1858 -43.1822 -43.1819
   -43.1812 -43.1786 -43.1761 -43.1695 -43.1690 -43.1642 -43.1635 -43.1616
   -43.1608 -43.1602 -43.1593 -43.1587 -43.1578 -43.1567 -43.1556 -43.1554
   -43.1445 -43.1424 -43.1382 -43.1364 -29.1244 -29.0938 -29.0633 -29.0415
   -29.0188 -28.9968 -28.9828 -28.9732 -28.9419 -28.9297 -28.9184 -28.9068
   -28.8932 -28.8763 -28.8582 -28.8372 -28.8223 -28.8089 -28.8043 -28.7975
   -28.7885 -26.4550 -26.4340 -26.4240 -26.4159 -26.4048 -26.3508 -22.7610
   -22.7129 -22.6485 -22.6317 -22.6166 -22.5499  14.9725  17.3888  17.5150
    17.8377  18.0811  18.1006  18.1389  18.3674  18.4871  18.6134  18.7215
    18.8564  18.9621  19.0071  19.1192  19.2175  19.2714  19.5094  19.6099
    19.8662  20.0438  20.1078  20.1569  20.2023  20.3125  20.3665  20.4391
    20.5599  20.5868  20.6314  20.6783  20.8418  20.9207  21.1984  21.3263
    21.3820  21.7640  21.8051  21.9233  21.9467  22.0050  22.0713  22.1444
    22.2224  22.3473  22.4461  22.7475  22.8342  23.0847  23.3055  23.4989
    23.5331  23.5871  23.6316  23.7706  23.9030  24.1860  24.3779  25.0461
    25.1690  25.7595  27.6955  27.9017  28.0105  29.2099  29.3062  29.8110
    30.6087  31.2451  31.8128  32.3173  32.8050  33.0899  33.4665  34.2939
    34.3274  35.7992  35.8582  36.5091  36.9594  37.2038  37.9576  38.1303

          k = 0.1047 0.2601 0.1551 ( 22154 PWs)   bands (ev):

   -74.8559 -74.8330 -74.8164 -74.7938 -74.7869 -74.7830 -74.7754 -60.7018
   -60.6933 -54.8076 -54.7843 -43.2606 -43.2509 -43.2438 -43.2374 -43.2369
   -43.2330 -43.2299 -43.2295 -43.2276 -43.2263 -43.2198 -43.2161 -43.2149
   -43.2072 -43.2049 -43.2037 -43.2017 -43.2013 -43.2004 -43.1975 -43.1960
   -43.1954 -43.1935 -43.1933 -43.1924 -43.1907 -43.1858 -43.1822 -43.1819
   -43.1812 -43.1786 -43.1761 -43.1695 -43.1690 -43.1642 -43.1635 -43.1616
   -43.1608 -43.1602 -43.1593 -43.1587 -43.1578 -43.1567 -43.1556 -43.1554
   -43.1445 -43.1424 -43.1382 -43.1364 -29.1337 -29.0977 -29.0681 -29.0259
   -29.0170 -29.0050 -28.9795 -28.9709 -28.9421 -28.9283 -28.9049 -28.8967
   -28.8901 -28.8717 -28.8662 -28.8435 -28.8339 -28.8147 -28.8055 -28.7938
   -28.7886 -26.4553 -26.4336 -26.4243 -26.4157 -26.4049 -26.3508 -22.7610
   -22.7127 -22.6487 -22.6321 -22.6164 -22.5498  15.4103  16.9534  17.4674
    17.6931  17.7384  17.9477  18.1191  18.1743  18.4028  18.6373  18.7143
    18.9306  19.0796  19.1735  19.2541  19.3496  19.4505  19.5207  19.5502
    19.7090  19.9086  20.0280  20.1182  20.3077  20.3660  20.5201  20.5677
    20.6351  20.6701  20.6942  20.7373  20.8397  20.9053  21.1512  21.4602
    21.5377  21.6272  21.7304  21.8169  21.9255  21.9740  22.0746  22.1068
    22.2349  22.3201  22.4008  22.4775  23.0256  23.1958  23.2511  23.3082
    23.4743  23.5576  23.6112  23.7471  23.8051  23.9421  24.1779  25.5147
    26.3096  26.6370  27.1756  28.2426  28.5330  28.7624  29.3961  29.9027
    30.2826  30.8352  31.1493  31.9314  32.0709  32.8373  33.2414  34.1110
    34.6553  35.4302  35.6995  36.1392  36.2673  37.6879  38.3390  38.5659

          k = 0.1253 0.3198 0.3102 ( 22137 PWs)   bands (ev):

   -74.8559 -74.8330 -74.8164 -74.7944 -74.7865 -74.7829 -74.7754 -60.7018
   -60.6933 -54.8076 -54.7843 -43.2606 -43.2509 -43.2438 -43.2374 -43.2369
   -43.2330 -43.2299 -43.2295 -43.2276 -43.2263 -43.2198 -43.2161 -43.2149
   -43.2072 -43.2049 -43.2037 -43.2017 -43.2013 -43.2004 -43.1975 -43.1960
   -43.1954 -43.1935 -43.1933 -43.1924 -43.1907 -43.1858 -43.1822 -43.1819
   -43.1812 -43.1786 -43.1761 -43.1695 -43.1690 -43.1642 -43.1635 -43.1616
   -43.1608 -43.1602 -43.1593 -43.1587 -43.1578 -43.1567 -43.1556 -43.1554
   -43.1445 -43.1424 -43.1382 -43.1364 -29.1218 -29.1079 -29.0639 -29.0375
   -29.0195 -28.9964 -28.9836 -28.9595 -28.9486 -28.9306 -28.9086 -28.9032
   -28.8796 -28.8726 -28.8621 -28.8464 -28.8331 -28.8169 -28.8064 -28.7928
   -28.7865 -26.4553 -26.4336 -26.4243 -26.4158 -26.4049 -26.3507 -22.7609
   -22.7126 -22.6489 -22.6325 -22.6161 -22.5498  16.0613  16.2704  17.3369
    17.5448  17.7949  17.8606  17.9974  18.2965  18.3811  18.5538  18.7594
    18.8532  19.1701  19.2680  19.2827  19.3429  19.3974  19.5899  19.6563
    19.8876  19.9417  20.0329  20.0678  20.2078  20.4462  20.5152  20.5604
    20.6478  20.6976  20.7899  20.8448  20.9186  21.0449  21.1732  21.2769
    21.3885  21.5448  21.6171  21.6876  21.7874  21.8139  21.9772  22.1075
    22.1467  22.2356  22.5450  22.8291  23.0491  23.3032  23.3746  23.4701
    23.5184  23.5792  23.6833  23.7252  23.8462  23.8640  24.1033  25.3274
    25.8293  26.6650  26.8353  28.6880  28.8117  29.3338  29.7844  29.9690
    30.8876  30.9294  31.1744  31.7528  31.8698  32.4772  33.2875  33.6469
    34.7264  35.0315  35.3156  36.3884  36.7548  37.3728  37.7587  37.9115

          k = 0.0428 0.0811-0.3102 ( 22122 PWs)   bands (ev):

   -74.8560 -74.8329 -74.8163 -74.7941 -74.7865 -74.7832 -74.7754 -60.7018
   -60.6933 -54.8076 -54.7843 -43.2606 -43.2509 -43.2438 -43.2374 -43.2369
   -43.2330 -43.2299 -43.2295 -43.2276 -43.2263 -43.2198 -43.2161 -43.2149
   -43.2072 -43.2049 -43.2037 -43.2017 -43.2013 -43.2004 -43.1975 -43.1960
   -43.1954 -43.1935 -43.1933 -43.1924 -43.1907 -43.1858 -43.1822 -43.1819
   -43.1812 -43.1786 -43.1761 -43.1695 -43.1690 -43.1642 -43.1635 -43.1616
   -43.1608 -43.1602 -43.1593 -43.1587 -43.1578 -43.1567 -43.1556 -43.1554
   -43.1445 -43.1424 -43.1382 -43.1364 -29.1147 -29.0891 -29.0690 -29.0481
   -29.0163 -29.0113 -28.9770 -28.9613 -28.9541 -28.9297 -28.9195 -28.9084
   -28.8942 -28.8755 -28.8448 -28.8353 -28.8287 -28.8135 -28.8074 -28.7951
   -28.7846 -26.4551 -26.4340 -26.4240 -26.4161 -26.4048 -26.3507 -22.7610
   -22.7127 -22.6488 -22.6323 -22.6161 -22.5498  15.3957  16.9171  17.4072
    17.6039  17.8554  17.9830  18.0671  18.2190  18.5859  18.6479  18.8096
    18.8915  19.1496  19.2334  19.2739  19.3634  19.5646  19.5981  19.7042
    19.7828  19.9480  20.0544  20.1113  20.2270  20.2518  20.3000  20.3616
    20.4691  20.6096  20.6663  20.7139  20.7799  20.9096  20.9677  21.2749
    21.3588  21.4406  21.7712  21.9012  21.9438  22.0236  22.0969  22.1412
    22.1893  22.4891  22.6098  22.6285  22.9900  23.3897  23.4820  23.5209
    23.5804  23.6527  23.7441  23.7803  23.8657  23.9641  24.1431  24.8330
    25.4597  25.9108  26.5068  28.3303  28.9065  29.1259  30.2392  30.4455
    30.8400  31.1613  31.4219  31.8961  32.2624  33.8762  34.1761  34.4782
    34.7649  35.0413  36.0229  36.1953  36.3301  36.5063  36.6761  36.8488

          k = 0.0634 0.1408-0.1551 ( 22123 PWs)   bands (ev):

   -74.8561 -74.8329 -74.8164 -74.7932 -74.7870 -74.7835 -74.7754 -60.7018
   -60.6933 -54.8076 -54.7843 -43.2606 -43.2509 -43.2438 -43.2374 -43.2369
   -43.2330 -43.2299 -43.2295 -43.2276 -43.2263 -43.2198 -43.2161 -43.2149
   -43.2072 -43.2049 -43.2037 -43.2017 -43.2013 -43.2004 -43.1975 -43.1960
   -43.1954 -43.1935 -43.1933 -43.1924 -43.1907 -43.1858 -43.1822 -43.1819
   -43.1812 -43.1786 -43.1761 -43.1695 -43.1690 -43.1642 -43.1635 -43.1616
   -43.1608 -43.1602 -43.1593 -43.1587 -43.1578 -43.1567 -43.1556 -43.1554
   -43.1445 -43.1424 -43.1382 -43.1364 -29.1106 -29.0869 -29.0662 -29.0458
   -29.0343 -29.0004 -28.9792 -28.9670 -28.9489 -28.9279 -28.9248 -28.9095
   -28.8976 -28.8783 -28.8486 -28.8358 -28.8209 -28.8066 -28.8044 -28.7985
   -28.7853 -26.4550 -26.4342 -26.4238 -26.4161 -26.4047 -26.3508 -22.7611
   -22.7129 -22.6486 -22.6318 -22.6165 -22.5498  14.9670  17.3191  17.6104
    17.8421  17.9090  18.0330  18.1895  18.4290  18.4878  18.5872  18.8480
    18.8875  18.9901  19.0737  19.2029  19.3693  19.4368  19.4822  19.7020
    19.8530  19.8981  20.0137  20.1414  20.1973  20.2469  20.3129  20.4119
    20.4707  20.5406  20.6238  20.7156  20.7579  20.9331  21.1495  21.2411
    21.4362  21.5895  21.6053  21.8778  22.0118  22.1153  22.1671  22.1997
    22.2935  22.4218  22.5635  22.6259  22.7257  22.9680  23.4419  23.5248
    23.6655  23.7661  23.8140  23.9098  23.9380  24.0067  24.0787  24.5215
    25.7303  26.1547  26.4786  26.9450  28.6992  29.0484  29.4613  29.9924
    31.2017  32.1279  32.5013  32.9867  33.4852  33.6166  33.7056  34.0189
    34.2400  34.4675  34.9929  36.4494  37.0414  37.2773  37.5569  37.6295

          k = 0.0841 0.3727 0.0000 ( 22118 PWs)   bands (ev):

   -74.8559 -74.8330 -74.8164 -74.7929 -74.7873 -74.7842 -74.7746 -60.7018
   -60.6933 -54.8076 -54.7843 -43.2606 -43.2509 -43.2438 -43.2374 -43.2369
   -43.2330 -43.2299 -43.2295 -43.2276 -43.2263 -43.2198 -43.2161 -43.2149
   -43.2072 -43.2049 -43.2037 -43.2017 -43.2013 -43.2004 -43.1975 -43.1960
   -43.1954 -43.1935 -43.1933 -43.1924 -43.1907 -43.1858 -43.1822 -43.1819
   -43.1813 -43.1786 -43.1761 -43.1695 -43.1690 -43.1642 -43.1635 -43.1616
   -43.1608 -43.1602 -43.1593 -43.1587 -43.1578 -43.1567 -43.1556 -43.1554
   -43.1445 -43.1424 -43.1382 -43.1364 -29.1385 -29.0952 -29.0625 -29.0293
   -29.0088 -28.9999 -28.9906 -28.9695 -28.9431 -28.9239 -28.9121 -28.9021
   -28.8915 -28.8736 -28.8643 -28.8432 -28.8205 -28.8176 -28.8054 -28.7994
   -28.7867 -26.4552 -26.4335 -26.4245 -26.4161 -26.4043 -26.3510 -22.7611
   -22.7127 -22.6488 -22.6317 -22.6167 -22.5499  15.6726  16.4967  17.2901
    17.7412  17.9383  18.0477  18.1651  18.3766  18.4707  18.5629  18.7742
    18.7944  18.8376  18.9169  19.1602  19.2569  19.4271  19.5027  19.6706
    19.7744  19.9867  20.1034  20.2340  20.3212  20.3893  20.4114  20.6591
    20.6877  20.7501  20.7794  20.8238  20.9481  21.0258  21.1423  21.2940
    21.3424  21.3839  21.4538  21.6478  21.9391  22.0575  22.1735  22.2567
    22.3783  22.5055  22.5679  22.8274  22.9840  23.0182  23.4480  23.5282
    23.5968  23.7466  23.7821  23.8323  23.8963  24.0010  24.0639  24.4397
    24.7344  25.7330  27.8773  29.1546  29.5562  29.6448  30.1381  30.3930
    30.4968  30.7301  30.8024  31.1111  31.4074  32.3617  33.7254  33.8659
    34.2310  34.8839  35.2484  36.7231  36.7894  37.2112  37.5345  38.6377

          k = 0.1047 0.4324 0.1551 ( 22132 PWs)   bands (ev):

   -74.8559 -74.8330 -74.8164 -74.7935 -74.7869 -74.7842 -74.7747 -60.7018
   -60.6932 -54.8076 -54.7843 -43.2606 -43.2509 -43.2438 -43.2374 -43.2369
   -43.2330 -43.2299 -43.2295 -43.2276 -43.2263 -43.2198 -43.2161 -43.2149
   -43.2072 -43.2049 -43.2037 -43.2017 -43.2013 -43.2004 -43.1975 -43.1960
   -43.1954 -43.1935 -43.1933 -43.1924 -43.1907 -43.1858 -43.1822 -43.1819
   -43.1813 -43.1786 -43.1761 -43.1695 -43.1690 -43.1642 -43.1635 -43.1616
   -43.1608 -43.1602 -43.1593 -43.1587 -43.1578 -43.1567 -43.1556 -43.1554
   -43.1445 -43.1424 -43.1382 -43.1364 -29.1314 -29.1009 -29.0606 -29.0357
   -29.0152 -29.0003 -28.9810 -28.9667 -28.9417 -28.9336 -28.9110 -28.9045
   -28.8859 -28.8723 -28.8614 -28.8430 -28.8223 -28.8184 -28.8051 -28.7997
   -28.7870 -26.4552 -26.4335 -26.4244 -26.4163 -26.4043 -26.3509 -22.7610
   -22.7125 -22.6490 -22.6320 -22.6164 -22.5499  16.0081  16.4452  17.2305
    17.4780  17.6943  17.8878  18.1824  18.3364  18.5030  18.6692  18.6832
    18.8496  18.9504  19.0100  19.2151  19.3298  19.4190  19.4604  19.5658
    19.7947  19.9306  20.0736  20.1913  20.2445  20.3358  20.4593  20.5020
    20.7162  20.7261  20.8421  20.8972  21.0411  21.1067  21.2823  21.4208
    21.6225  21.6744  21.7077  21.7463  21.7836  21.8872  22.0426  22.1261
    22.2934  22.4850  22.5069  22.7534  22.8276  22.8935  23.1916  23.4674
    23.5565  23.5958  23.7300  23.8087  23.8464  23.8946  24.0855  24.6717
    25.0110  26.3066  28.5556  28.8641  28.9995  29.7828  30.0323  30.4404
    30.8002  30.8668  31.0420  31.5294  31.7310  31.9383  32.6094  33.4152
    34.0113  34.6404  35.9563  36.2712  36.5406  37.8062  37.8756  38.3939

          k = 0.1253 0.4920 0.3102 ( 22111 PWs)   bands (ev):

   -74.8560 -74.8328 -74.8163 -74.7940 -74.7864 -74.7842 -74.7747 -60.7018
   -60.6932 -54.8076 -54.7843 -43.2606 -43.2509 -43.2438 -43.2374 -43.2369
   -43.2330 -43.2299 -43.2295 -43.2276 -43.2263 -43.2198 -43.2161 -43.2149
   -43.2072 -43.2049 -43.2037 -43.2017 -43.2013 -43.2004 -43.1975 -43.1960
   -43.1954 -43.1935 -43.1933 -43.1924 -43.1907 -43.1858 -43.1822 -43.1819
   -43.1813 -43.1786 -43.1761 -43.1695 -43.1690 -43.1642 -43.1635 -43.1616
   -43.1608 -43.1602 -43.1593 -43.1587 -43.1578 -43.1567 -43.1556 -43.1554
   -43.1445 -43.1424 -43.1382 -43.1364 -29.1113 -29.0986 -29.0676 -29.0468
   -29.0209 -29.0071 -28.9731 -28.9536 -28.9469 -28.9396 -28.9284 -28.9079
   -28.8869 -28.8761 -28.8433 -28.8371 -28.8242 -28.8188 -28.8054 -28.8004
   -28.7835 -26.4550 -26.4339 -26.4241 -26.4166 -26.4041 -26.3509 -22.7609
   -22.7124 -22.6491 -22.6324 -22.6161 -22.5498  16.0399  16.7074  17.0582
    17.4036  17.5627  17.9158  18.2607  18.3971  18.5075  18.6131  18.6654
    18.7153  19.0382  19.0718  19.1147  19.1620  19.3387  19.3752  19.7400
    20.0121  20.1532  20.2151  20.2741  20.3725  20.4033  20.4815  20.5446
    20.6269  20.7121  20.7724  20.8618  20.9054  20.9534  20.9963  21.0879
    21.4397  21.5717  21.6968  21.7261  21.8799  22.0238  22.1663  22.2831
    22.3729  22.3808  22.8059  22.8982  22.9186  22.9758  23.1501  23.4869
    23.6135  23.6613  23.6983  23.7797  23.8883  23.9504  23.9913  24.1128
    24.2224  27.5101  28.3459  28.5853  29.0416  29.6512  29.9035  30.1193
    30.7065  30.9884  31.3336  32.1438  32.5811  32.9984  33.3638  33.7548
    33.8549  34.4689  35.6368  35.8070  36.3735  36.5695  37.0810  37.2358

          k = 0.0428 0.2534-0.3102 ( 22115 PWs)   bands (ev):

   -74.8560 -74.8328 -74.8163 -74.7938 -74.7865 -74.7843 -74.7747 -60.7018
   -60.6932 -54.8076 -54.7843 -43.2606 -43.2509 -43.2438 -43.2374 -43.2369
   -43.2330 -43.2299 -43.2295 -43.2276 -43.2263 -43.2198 -43.2161 -43.2149
   -43.2072 -43.2049 -43.2037 -43.2017 -43.2013 -43.2004 -43.1975 -43.1960
   -43.1954 -43.1935 -43.1933 -43.1924 -43.1907 -43.1858 -43.1822 -43.1819
   -43.1813 -43.1786 -43.1761 -43.1695 -43.1690 -43.1642 -43.1635 -43.1616
   -43.1608 -43.1602 -43.1593 -43.1587 -43.1578 -43.1567 -43.1556 -43.1554
   -43.1445 -43.1424 -43.1382 -43.1364 -29.1109 -29.0845 -29.0657 -29.0565
   -29.0258 -29.0130 -28.9634 -28.9591 -28.9518 -28.9348 -28.9228 -28.9087
   -28.9018 -28.8769 -28.8427 -28.8321 -28.8229 -28.8190 -28.8029 -28.8012
   -28.7812 -26.4549 -26.4341 -26.4239 -26.4166 -26.4041 -26.3510 -22.7610
   -22.7125 -22.6491 -22.6322 -22.6162 -22.5498  15.7228  16.8699  17.2718
    17.4190  17.5550  18.1639  18.2898  18.3867  18.4462  18.5277  18.7248
    18.7647  18.7977  18.9261  19.2060  19.3673  19.4405  19.6399  19.7693
    19.9158  19.9613  20.1113  20.2616  20.4279  20.4721  20.5125  20.5514
    20.5876  20.6608  20.7099  20.7987  20.8639  20.9137  21.0081  21.0930
    21.1426  21.1964  21.6076  21.8341  21.9911  22.1318  22.1948  22.4181
    22.5513  22.6932  22.7337  22.7822  23.0258  23.0685  23.2157  23.3527
    23.5079  23.5722  23.6622  23.7634  23.8135  23.8990  23.9837  24.0772
    24.6647  26.5848  27.7886  28.5895  29.5685  29.6707  29.9637  30.4170
    30.7632  31.0436  31.1174  31.6672  33.5233  33.9133  34.0744  34.3831
    34.6593  34.8727  34.9420  35.6993  36.1921  36.2767  36.4748  36.8327

          k = 0.0634 0.3131-0.1551 ( 22119 PWs)   bands (ev):

   -74.8560 -74.8329 -74.8164 -74.7932 -74.7870 -74.7844 -74.7747 -60.7018
   -60.6932 -54.8076 -54.7843 -43.2606 -43.2509 -43.2438 -43.2374 -43.2369
   -43.2330 -43.2299 -43.2295 -43.2276 -43.2263 -43.2198 -43.2161 -43.2149
   -43.2072 -43.2049 -43.2037 -43.2017 -43.2013 -43.2004 -43.1975 -43.1960
   -43.1954 -43.1935 -43.1933 -43.1924 -43.1907 -43.1858 -43.1822 -43.1819
   -43.1813 -43.1786 -43.1761 -43.1695 -43.1690 -43.1642 -43.1635 -43.1616
   -43.1608 -43.1602 -43.1593 -43.1587 -43.1578 -43.1567 -43.1556 -43.1554
   -43.1445 -43.1424 -43.1382 -43.1364 -29.1218 -29.0988 -29.0630 -29.0383
   -29.0246 -28.9976 -28.9751 -28.9598 -28.9458 -28.9329 -28.9272 -28.9055
   -28.8955 -28.8774 -28.8540 -28.8360 -28.8205 -28.8180 -28.8032 -28.7990
   -28.7835 -26.4550 -26.4339 -26.4241 -26.4164 -26.4042 -26.3511 -22.7611
   -22.7127 -22.6489 -22.6318 -22.6165 -22.5498  15.5181  16.9490  17.2402
    17.4850  17.7360  18.1813  18.3089  18.4004  18.4612  18.6134  18.6536
    18.7555  18.9393  18.9971  19.1622  19.3039  19.3229  19.4596  19.7901
    19.8989  20.0236  20.1277  20.1880  20.2962  20.3294  20.4434  20.4769
    20.5882  20.6447  20.7227  20.7972  20.8354  20.8929  21.0375  21.1761
    21.3557  21.6926  21.8699  21.9789  22.0817  22.1153  22.2245  22.2615
    22.3428  22.4130  22.5305  22.8373  22.9521  23.0606  23.1744  23.4567
    23.4827  23.5983  23.6298  23.7277  23.8047  23.8964  24.0119  24.1633
    25.6605  26.2078  26.3576  29.1612  29.5119  29.6841  30.1057  30.4451
    30.7217  30.9265  31.1909  31.7947  32.5460  32.9952  33.5857  33.9679
    34.3363  35.1601  35.7032  35.7325  36.2272  36.7907  36.9000  37.5108

          k = 0.0841-0.3164 0.0000 ( 22142 PWs)   bands (ev):

   -74.8559 -74.8331 -74.8164 -74.7929 -74.7873 -74.7839 -74.7749 -60.7018
   -60.6933 -54.8076 -54.7843 -43.2606 -43.2509 -43.2438 -43.2374 -43.2369
   -43.2330 -43.2299 -43.2295 -43.2276 -43.2263 -43.2198 -43.2161 -43.2149
   -43.2072 -43.2049 -43.2037 -43.2017 -43.2013 -43.2004 -43.1975 -43.1960
   -43.1954 -43.1935 -43.1933 -43.1924 -43.1907 -43.1858 -43.1823 -43.1819
   -43.1812 -43.1786 -43.1761 -43.1695 -43.1690 -43.1642 -43.1635 -43.1616
   -43.1608 -43.1602 -43.1593 -43.1587 -43.1578 -43.1567 -43.1556 -43.1554
   -43.1445 -43.1424 -43.1382 -43.1364 -29.1356 -29.0951 -29.0576 -29.0316
   -29.0094 -29.0049 -28.9858 -28.9737 -28.9431 -28.9248 -28.9147 -28.9068
   -28.8927 -28.8747 -28.8585 -28.8428 -28.8241 -28.8104 -28.8044 -28.8021
   -28.7849 -26.4553 -26.4336 -26.4243 -26.4161 -26.4044 -26.3507 -22.7611
   -22.7128 -22.6487 -22.6317 -22.6166 -22.5499  15.4275  16.7835  17.3195
    17.8412  17.9544  18.0562  18.2013  18.3055  18.5145  18.6330  18.6762
    18.7805  18.8357  18.9265  19.2781  19.4089  19.4363  19.4916  19.5977
    19.6687  19.8526  19.9649  20.0778  20.2851  20.4454  20.5325  20.5971
    20.6609  20.7324  20.7939  20.8616  20.8902  21.0342  21.1445  21.2046
    21.2469  21.6575  21.7011  21.7564  21.8988  22.0017  22.1589  22.2209
    22.4552  22.5167  22.6055  22.7089  22.7820  23.1280  23.2004  23.3844
    23.5416  23.7230  23.7403  23.8283  23.8949  23.9663  24.2494  24.6788
    24.8081  26.0510  28.0707  28.3627  28.9550  29.0825  29.2125  30.1913
    30.5438  31.1848  31.5380  31.7406  32.2632  32.8482  33.6343  34.3943
    34.8012  35.3193  35.5392  35.7746  36.7414  37.1381  37.7140  38.0375

          k = 0.1047-0.2567 0.1551 ( 22120 PWs)   bands (ev):

   -74.8560 -74.8329 -74.8163 -74.7934 -74.7868 -74.7841 -74.7749 -60.7018
   -60.6932 -54.8076 -54.7843 -43.2606 -43.2509 -43.2438 -43.2374 -43.2369
   -43.2330 -43.2299 -43.2295 -43.2276 -43.2263 -43.2198 -43.2161 -43.2149
   -43.2072 -43.2049 -43.2037 -43.2017 -43.2013 -43.2004 -43.1975 -43.1960
   -43.1954 -43.1935 -43.1933 -43.1924 -43.1907 -43.1858 -43.1823 -43.1819
   -43.1812 -43.1786 -43.1761 -43.1695 -43.1690 -43.1642 -43.1635 -43.1616
   -43.1608 -43.1602 -43.1593 -43.1587 -43.1578 -43.1567 -43.1556 -43.1554
   -43.1445 -43.1424 -43.1382 -43.1364 -29.1146 -29.0978 -29.0634 -29.0442
   -29.0241 -29.0008 -28.9732 -28.9629 -28.9488 -28.9395 -28.9223 -28.9067
   -28.8923 -28.8790 -28.8482 -28.8356 -28.8242 -28.8111 -28.8046 -28.7993
   -28.7848 -26.4551 -26.4340 -26.4240 -26.4164 -26.4043 -26.3508 -22.7610
   -22.7126 -22.6488 -22.6320 -22.6164 -22.5498  15.3556  17.2100  17.3400
    17.5187  17.8735  18.0534  18.1896  18.3017  18.5561  18.6981  18.7721
    18.8973  18.9264  19.0347  19.1118  19.1722  19.2708  19.3548  19.4942
    19.7144  19.9771  20.1234  20.1994  20.3104  20.3686  20.4121  20.4878
    20.6450  20.6655  20.7094  20.8176  20.8514  20.9307  21.3129  21.4318
    21.6711  21.7793  21.8845  21.9131  21.9953  22.0839  22.1125  22.2027
    22.2393  22.3733  22.4624  22.5329  22.6191  22.9457  23.2830  23.4422
    23.5738  23.6975  23.7410  23.7732  23.8325  23.8446  23.9479  24.1650
    25.2706  26.4357  28.0089  28.3369  28.6903  29.6075  29.9552  30.3933
    30.6569  31.0016  31.4976  31.6420  32.2574  32.8534  33.6099  34.1545
    35.4330  35.5724  35.8150  36.0393  36.3073  36.6011  37.3674  37.6317

          k = 0.1253-0.1971 0.3102 ( 22125 PWs)   bands (ev):

   -74.8560 -74.8328 -74.8163 -74.7940 -74.7864 -74.7840 -74.7749 -60.7018
   -60.6932 -54.8076 -54.7843 -43.2606 -43.2509 -43.2438 -43.2374 -43.2369
   -43.2330 -43.2299 -43.2295 -43.2276 -43.2263 -43.2198 -43.2161 -43.2149
   -43.2072 -43.2049 -43.2037 -43.2017 -43.2013 -43.2004 -43.1975 -43.1960
   -43.1954 -43.1935 -43.1933 -43.1924 -43.1907 -43.1858 -43.1823 -43.1819
   -43.1812 -43.1786 -43.1761 -43.1695 -43.1690 -43.1642 -43.1635 -43.1616
   -43.1608 -43.1602 -43.1593 -43.1587 -43.1578 -43.1567 -43.1556 -43.1554
   -43.1445 -43.1424 -43.1382 -43.1364 -29.1101 -29.0793 -29.0684 -29.0623
   -29.0242 -29.0138 -28.9639 -28.9606 -28.9476 -28.9356 -28.9219 -28.9075
   -28.8989 -28.8785 -28.8420 -28.8337 -28.8318 -28.8179 -28.8021 -28.7967
   -28.7808 -26.4549 -26.4342 -26.4238 -26.4166 -26.4042 -26.3508 -22.7610
   -22.7125 -22.6490 -22.6324 -22.6161 -22.5498  15.6507  16.9420  17.2382
    17.5211  17.7607  18.0602  18.2467  18.3010  18.3628  18.4908  18.7882
    18.8913  18.9530  19.0108  19.0821  19.3011  19.3419  19.5431  19.5944
    19.9194  20.0775  20.1252  20.2754  20.3795  20.4070  20.4761  20.5326
    20.5954  20.6231  20.7317  20.7618  20.8258  20.9035  20.9628  21.0718
    21.4669  21.5735  21.7297  21.8607  22.0315  22.1022  22.2624  22.3143
    22.3438  22.4982  22.6084  22.6656  22.7992  22.9577  23.2090  23.2916
    23.4173  23.5740  23.6979  23.8023  23.8987  24.0518  24.1148  24.3569
    24.6533  27.6245  28.0568  28.3143  28.3936  28.7419  29.7543  30.2912
    31.1987  31.4910  31.8238  32.0092  32.8469  33.5110  33.9274  34.0622
    34.6167  35.1153  35.4509  35.8448  35.9930  36.3421  36.4126  36.6298

          k = 0.0428-0.4357-0.3102 ( 22106 PWs)   bands (ev):

   -74.8560 -74.8329 -74.8163 -74.7941 -74.7865 -74.7838 -74.7749 -60.7018
   -60.6932 -54.8076 -54.7843 -43.2606 -43.2509 -43.2438 -43.2374 -43.2369
   -43.2330 -43.2299 -43.2295 -43.2276 -43.2263 -43.2198 -43.2161 -43.2149
   -43.2072 -43.2049 -43.2037 -43.2017 -43.2013 -43.2004 -43.1975 -43.1960
   -43.1954 -43.1935 -43.1933 -43.1924 -43.1907 -43.1858 -43.1823 -43.1819
   -43.1812 -43.1786 -43.1761 -43.1695 -43.1690 -43.1642 -43.1635 -43.1616
   -43.1608 -43.1602 -43.1593 -43.1587 -43.1578 -43.1567 -43.1556 -43.1554
   -43.1445 -43.1424 -43.1382 -43.1364 -29.1149 -29.1006 -29.0711 -29.0368
   -29.0240 -29.0051 -28.9700 -28.9565 -28.9458 -28.9334 -28.9215 -28.9053
   -28.8935 -28.8767 -28.8544 -28.8419 -28.8313 -28.8184 -28.8024 -28.7941
   -28.7799 -26.4550 -26.4339 -26.4241 -26.4164 -26.4043 -26.3509 -22.7610
   -22.7126 -22.6489 -22.6323 -22.6161 -22.5498  16.0927  16.5613  17.0092
    17.5399  17.6365  17.8761  18.1408  18.2784  18.5506  18.6367  18.6986
    18.8915  18.9287  19.1519  19.1865  19.3570  19.5029  19.5964  19.7103
    19.8709  19.9915  20.0068  20.0263  20.2094  20.2622  20.3629  20.5426
    20.6479  20.6846  20.7636  20.8682  20.8915  21.0224  21.0804  21.2071
    21.3901  21.8123  21.8811  21.9952  22.0204  22.0852  22.1895  22.2254
    22.2858  22.4092  22.6714  22.7592  22.8000  22.9935  23.0743  23.1278
    23.2131  23.2799  23.6334  23.7429  23.8981  24.0018  24.1225  24.9031
    25.5913  26.9988  27.7344  27.9102  28.4197  28.8263  29.6118  30.6831
    31.6710  31.8151  31.9231  32.2633  32.4478  32.9300  33.5593  33.9441
    34.5185  34.9621  35.2321  35.6560  35.8287  36.2298  36.3687  37.4943

          k = 0.0634-0.3761-0.1551 ( 22139 PWs)   bands (ev):

   -74.8559 -74.8330 -74.8164 -74.7934 -74.7871 -74.7838 -74.7748 -60.7018
   -60.6933 -54.8076 -54.7843 -43.2606 -43.2509 -43.2438 -43.2374 -43.2369
   -43.2330 -43.2299 -43.2295 -43.2276 -43.2263 -43.2198 -43.2161 -43.2149
   -43.2072 -43.2049 -43.2037 -43.2017 -43.2013 -43.2004 -43.1975 -43.1960
   -43.1954 -43.1935 -43.1933 -43.1924 -43.1907 -43.1858 -43.1823 -43.1819
   -43.1812 -43.1786 -43.1761 -43.1695 -43.1690 -43.1642 -43.1635 -43.1616
   -43.1608 -43.1602 -43.1593 -43.1587 -43.1578 -43.1567 -43.1556 -43.1554
   -43.1445 -43.1424 -43.1382 -43.1364 -29.1350 -29.0980 -29.0610 -29.0333
   -29.0087 -29.0013 -28.9850 -28.9709 -28.9383 -28.9239 -28.9158 -28.8975
   -28.8914 -28.8748 -28.8712 -28.8474 -28.8266 -28.8141 -28.8049 -28.7966
   -28.7820 -26.4553 -26.4336 -26.4244 -26.4161 -26.4044 -26.3508 -22.7611
   -22.7128 -22.6488 -22.6319 -22.6165 -22.5498  15.8505  16.4547  17.3108
    17.5391  17.8252  17.8844  18.1548  18.4201  18.4627  18.6780  18.7279
    18.8490  18.9142  18.9499  19.3290  19.4001  19.4472  19.5376  19.6856
    19.8154  19.8828  19.9271  20.0915  20.1188  20.2454  20.4411  20.5690
    20.6033  20.7446  20.8436  20.8920  20.9641  21.0793  21.1218  21.2631
    21.3351  21.7632  21.8437  21.9074  22.0048  22.0772  22.1524  22.3109
    22.3360  22.3762  22.4657  22.6269  22.8320  22.9488  23.0593  23.2700
    23.4230  23.5026  23.6844  23.7327  23.9141  23.9547  24.1371  25.2915
    25.6978  26.5752  27.0155  28.1759  28.5409  28.8570  29.5366  30.1945
    30.4432  31.4575  32.5128  32.6361  32.8571  33.3045  33.5362  33.7051
    33.9723  34.2651  34.7017  35.6724  36.5936  36.8758  37.5711  37.9088

          k = 0.0841-0.1441 0.0000 ( 22143 PWs)   bands (ev):

   -74.8561 -74.8330 -74.8164 -74.7931 -74.7874 -74.7828 -74.7758 -60.7018
   -60.6933 -54.8076 -54.7843 -43.2606 -43.2509 -43.2438 -43.2374 -43.2369
   -43.2330 -43.2299 -43.2295 -43.2276 -43.2263 -43.2198 -43.2161 -43.2149
   -43.2072 -43.2049 -43.2037 -43.2017 -43.2013 -43.2004 -43.1975 -43.1960
   -43.1954 -43.1935 -43.1933 -43.1924 -43.1907 -43.1858 -43.1822 -43.1819
   -43.1812 -43.1786 -43.1761 -43.1695 -43.1690 -43.1642 -43.1635 -43.1616
   -43.1608 -43.1602 -43.1593 -43.1587 -43.1578 -43.1567 -43.1556 -43.1554
   -43.1445 -43.1424 -43.1382 -43.1364 -29.1183 -29.0907 -29.0612 -29.0430
   -29.0224 -28.9996 -28.9845 -28.9697 -28.9524 -28.9349 -28.9124 -28.9095
   -28.8918 -28.8815 -28.8511 -28.8405 -28.8235 -28.8052 -28.8027 -28.7967
   -28.7861 -26.4553 -26.4342 -26.4238 -26.4158 -26.4050 -26.3504 -22.7611
   -22.7131 -22.6483 -22.6317 -22.6165 -22.5498  14.8185  17.5226  17.6849
    18.0408  18.0726  18.1837  18.2351  18.3788  18.4860  18.5767  18.6541
    18.7671  18.8500  18.9968  19.1486  19.2083  19.4419  19.4854  19.5587
    19.7404  19.9499  20.0155  20.0714  20.1836  20.2813  20.3677  20.4227
    20.5582  20.6183  20.7396  20.8408  20.9055  21.0390  21.1179  21.2640
    21.3435  21.4546  21.6318  21.6940  22.0166  22.0877  22.2051  22.2353
    22.2771  22.3714  22.5243  22.7319  22.9335  23.0329  23.1381  23.2588
    23.5951  23.7039  23.7515  23.7981  23.8613  24.1336  24.6745  25.0979
    25.4669  26.5267  26.6773  26.9550  27.6777  28.3833  28.9471  30.7196
    30.9269  31.3654  31.7493  32.1697  33.5537  34.0402  34.6168  35.4541
    35.7228  35.9561  36.2574  36.3537  36.4792  36.8560  37.1895  37.3813

          k = 0.1047-0.0845 0.1551 ( 22136 PWs)   bands (ev):

   -74.8561 -74.8329 -74.8164 -74.7936 -74.7868 -74.7828 -74.7758 -60.7018
   -60.6933 -54.8076 -54.7843 -43.2606 -43.2509 -43.2438 -43.2374 -43.2369
   -43.2330 -43.2299 -43.2295 -43.2276 -43.2263 -43.2198 -43.2161 -43.2149
   -43.2072 -43.2049 -43.2037 -43.2017 -43.2013 -43.2004 -43.1975 -43.1960
   -43.1954 -43.1935 -43.1933 -43.1924 -43.1907 -43.1858 -43.1822 -43.1819
   -43.1812 -43.1786 -43.1761 -43.1695 -43.1690 -43.1642 -43.1635 -43.1616
   -43.1608 -43.1602 -43.1593 -43.1587 -43.1578 -43.1567 -43.1556 -43.1554
   -43.1445 -43.1424 -43.1382 -43.1364 -29.1093 -29.0795 -29.0725 -29.0550
   -29.0275 -29.0066 -28.9727 -28.9697 -28.9471 -28.9311 -28.9173 -28.9072
   -28.8955 -28.8815 -28.8517 -28.8394 -28.8249 -28.8103 -28.8023 -28.7921
   -28.7844 -26.4551 -26.4344 -26.4236 -26.4160 -26.4050 -26.3505 -22.7610
   -22.7129 -22.6485 -22.6321 -22.6163 -22.5498  14.9227  17.3025  17.7002
    17.8842  18.0354  18.2327  18.3231  18.3893  18.4794  18.5910  18.7757
    18.8765  18.9627  19.0434  19.1327  19.2676  19.3044  19.3741  19.4750
    19.7460  19.9155  20.0045  20.0670  20.1046  20.2418  20.3829  20.4808
    20.5362  20.6084  20.6806  20.7149  20.8310  20.9324  21.0826  21.3771
    21.6772  21.7194  21.7994  21.8254  21.9522  22.1134  22.1462  22.2021
    22.2921  22.3107  22.4232  22.4509  22.9526  22.9967  23.2252  23.2615
    23.3998  23.5631  23.6879  23.8092  23.9204  23.9749  24.8476  24.9991
    25.9129  26.2754  26.7042  27.0038  28.1866  28.7272  29.7965  30.0666
    30.4147  30.7000  32.0511  33.2173  33.4627  34.0682  34.4280  34.8128
    35.0716  35.2176  35.9349  36.2253  36.5730  37.1270  37.3816  37.6882

          k = 0.1253-0.0248 0.3102 ( 22144 PWs)   bands (ev):

   -74.8560 -74.8329 -74.8164 -74.7945 -74.7864 -74.7825 -74.7758 -60.7018
   -60.6933 -54.8076 -54.7843 -43.2606 -43.2509 -43.2438 -43.2374 -43.2369
   -43.2330 -43.2299 -43.2295 -43.2276 -43.2263 -43.2198 -43.2161 -43.2149
   -43.2072 -43.2049 -43.2037 -43.2017 -43.2013 -43.2004 -43.1975 -43.1960
   -43.1954 -43.1935 -43.1933 -43.1924 -43.1907 -43.1858 -43.1822 -43.1819
   -43.1812 -43.1786 -43.1761 -43.1695 -43.1690 -43.1642 -43.1635 -43.1616
   -43.1608 -43.1602 -43.1593 -43.1587 -43.1578 -43.1567 -43.1556 -43.1554
   -43.1445 -43.1424 -43.1382 -43.1364 -29.1150 -29.0929 -29.0786 -29.0375
   -29.0213 -29.0059 -28.9778 -28.9622 -28.9465 -28.9285 -28.9099 -28.9051
   -28.8916 -28.8799 -28.8537 -28.8428 -28.8371 -28.8172 -28.8037 -28.7900
   -28.7806 -26.4551 -26.4341 -26.4239 -26.4159 -26.4050 -26.3505 -22.7610
   -22.7128 -22.6487 -22.6325 -22.6160 -22.5498  15.4499  16.7324  17.5245
    17.6343  17.8702  18.0630  18.1770  18.2851  18.3631  18.7541  18.8671
    18.9511  19.0587  19.1140  19.1647  19.2189  19.4405  19.5916  19.6796
    19.8886  19.9467  20.0021  20.1288  20.1952  20.2274  20.2960  20.3676
    20.4278  20.7099  20.7254  20.7982  20.8256  20.9152  21.1736  21.2781
    21.3785  21.5637  21.8004  21.8506  21.9023  21.9397  22.0329  22.2131
    22.3822  22.5006  22.6021  22.6730  22.8271  22.9911  23.0323  23.4160
    23.4797  23.5416  23.5902  23.7252  23.8317  24.1224  24.3242  25.8133
    26.0038  26.3963  27.0075  27.5556  28.3212  28.6592  29.6134  30.2985
    30.4653  30.9295  31.3383  32.6411  33.2269  33.6000  33.9621  34.2212
    35.0116  35.1249  35.8756  36.0217  36.3103  36.8077  37.2866  37.6940

          k = 0.0428-0.2634-0.3102 ( 22123 PWs)   bands (ev):

   -74.8559 -74.8330 -74.8164 -74.7945 -74.7866 -74.7823 -74.7758 -60.7018
   -60.6933 -54.8076 -54.7843 -43.2606 -43.2509 -43.2438 -43.2374 -43.2369
   -43.2330 -43.2299 -43.2295 -43.2276 -43.2263 -43.2198 -43.2161 -43.2149
   -43.2072 -43.2049 -43.2037 -43.2017 -43.2013 -43.2004 -43.1975 -43.1960
   -43.1954 -43.1935 -43.1933 -43.1924 -43.1907 -43.1858 -43.1822 -43.1819
   -43.1812 -43.1786 -43.1761 -43.1695 -43.1690 -43.1642 -43.1635 -43.1616
   -43.1608 -43.1602 -43.1593 -43.1587 -43.1578 -43.1567 -43.1556 -43.1554
   -43.1445 -43.1424 -43.1382 -43.1364 -29.1256 -29.1045 -29.0664 -29.0324
   -29.0170 -28.9993 -28.9777 -28.9720 -28.9439 -28.9205 -28.9074 -28.8957
   -28.8850 -28.8788 -28.8726 -28.8513 -28.8355 -28.8170 -28.8042 -28.7911
   -28.7799 -26.4554 -26.4337 -26.4242 -26.4156 -26.4052 -26.3505 -22.7610
   -22.7129 -22.6486 -22.6324 -22.6161 -22.5498  15.8579  16.3216  17.3652
    17.6092  17.8515  17.9446  18.0512  18.1544  18.6361  18.6621  18.8138
    18.9180  19.0303  19.1463  19.4067  19.4281  19.5472  19.6133  19.6797
    19.7933  19.8787  19.8949  19.9462  20.0909  20.2132  20.3161  20.4866
    20.7344  20.7608  20.8833  20.9624  20.9808  21.0594  21.1077  21.1916
    21.2614  21.3063  21.6702  21.7136  21.9265  21.9979  22.0869  22.2411
    22.3854  22.4357  22.5061  22.8631  22.9064  22.9429  23.1067  23.2356
    23.4580  23.5847  23.6604  23.7128  23.8176  23.9287  24.1326  26.4045
    26.6293  26.9774  27.0729  27.1724  27.6503  28.4481  29.1263  29.8021
    30.6704  31.0594  31.5307  32.6389  33.0375  33.4273  34.2257  34.7166
    35.1841  35.4944  35.5902  35.7657  35.9928  36.0803  36.1667  37.1685

          k = 0.0634-0.2038-0.1551 ( 22153 PWs)   bands (ev):

   -74.8559 -74.8331 -74.8164 -74.7937 -74.7871 -74.7825 -74.7758 -60.7018
   -60.6933 -54.8076 -54.7843 -43.2606 -43.2509 -43.2438 -43.2374 -43.2369
   -43.2330 -43.2299 -43.2295 -43.2276 -43.2263 -43.2198 -43.2161 -43.2149
   -43.2072 -43.2049 -43.2037 -43.2017 -43.2013 -43.2004 -43.1975 -43.1960
   -43.1954 -43.1935 -43.1933 -43.1924 -43.1907 -43.1858 -43.1822 -43.1819
   -43.1812 -43.1786 -43.1761 -43.1695 -43.1690 -43.1642 -43.1635 -43.1616
   -43.1608 -43.1602 -43.1593 -43.1587 -43.1578 -43.1567 -43.1556 -43.1554
   -43.1445 -43.1424 -43.1382 -43.1364 -29.1320 -29.0948 -29.0590 -29.0320
   -29.0147 -28.9987 -28.9924 -28.9729 -28.9425 -28.9266 -28.9105 -28.9036
   -28.8897 -28.8797 -28.8597 -28.8445 -28.8312 -28.8103 -28.8046 -28.7959
   -28.7824 -26.4554 -26.4338 -26.4242 -26.4156 -26.4051 -26.3504 -22.7611
   -22.7131 -22.6484 -22.6319 -22.6164 -22.5498  15.1607  17.1164  17.5452
    17.7238  17.8466  18.0834  18.1522  18.3415  18.4656  18.6220  18.7547
    18.8982  18.9645  18.9931  19.3200  19.4405  19.4893  19.6401  19.6804
    19.7363  19.8462  19.9017  20.1504  20.1827  20.2175  20.4578  20.5120
    20.5475  20.5577  20.6590  20.7348  20.8226  20.8476  21.1407  21.4484
    21.5395  21.5686  21.6816  21.7400  21.7899  21.8421  22.1268  22.2562
    22.3575  22.4723  22.7231  22.7707  22.9323  22.9850  23.2380  23.2971
    23.3311  23.6489  23.7141  23.7505  23.8033  23.9575  24.0600  26.3950
    26.5445  26.7095  26.9632  27.1255  27.6575  27.9132  28.0993  29.9698
    30.1830  31.8172  32.5375  32.8756  33.3604  33.7264  34.0790  34.9498
    35.1604  35.3924  35.6650  36.0157  36.1588  36.6485  37.1057  37.4209

          k = 0.2522 0.0845 0.0000 ( 22134 PWs)   bands (ev):

   -74.8558 -74.8321 -74.8172 -74.7933 -74.7873 -74.7817 -74.7770 -60.7018
   -60.6933 -54.8047 -54.7872 -43.2606 -43.2509 -43.2438 -43.2374 -43.2369
   -43.2330 -43.2299 -43.2295 -43.2276 -43.2263 -43.2198 -43.2161 -43.2149
   -43.2072 -43.2049 -43.2037 -43.2017 -43.2013 -43.2004 -43.1975 -43.1960
   -43.1954 -43.1935 -43.1933 -43.1924 -43.1907 -43.1858 -43.1823 -43.1819
   -43.1813 -43.1786 -43.1761 -43.1695 -43.1690 -43.1642 -43.1635 -43.1616
   -43.1608 -43.1602 -43.1593 -43.1587 -43.1578 -43.1567 -43.1556 -43.1554
   -43.1444 -43.1425 -43.1382 -43.1364 -29.1062 -29.0929 -29.0633 -29.0559
   -29.0309 -29.0110 -28.9762 -28.9641 -28.9400 -28.9281 -28.9136 -28.9020
   -28.8823 -28.8676 -28.8610 -28.8447 -28.8267 -28.8189 -28.8031 -28.7952
   -28.7928 -26.4550 -26.4360 -26.4244 -26.4150 -26.4046 -26.3507 -22.7590
   -22.7129 -22.6451 -22.6305 -22.6141 -22.5594  15.1576  17.5313  17.6898
    17.8922  17.9896  18.1015  18.2329  18.3036  18.3525  18.4539  18.5549
    18.6875  18.8070  18.9406  19.1076  19.2084  19.2599  19.3828  19.7165
    19.8752  19.9107  19.9835  20.1273  20.2102  20.4335  20.5260  20.5751
    20.6173  20.6703  20.6802  20.7883  20.8498  21.0561  21.1678  21.3303
    21.6564  21.7389  21.7718  21.8657  21.9457  22.0638  22.1468  22.1631
    22.4802  22.5376  22.7421  22.9627  23.0369  23.0917  23.2013  23.3730
    23.4413  23.5470  23.5712  23.7073  23.8999  24.0286  24.2436  24.3833
    25.6649  25.9670  26.3529  26.6785  27.0196  27.2381  30.2748  30.4905
    31.1468  31.5844  31.8641  32.4189  32.7215  33.3217  33.9988  35.2551
    36.3755  36.6231  36.8060  37.3724  37.7094  37.9101  38.0520  38.2140

          k = 0.2728 0.1442 0.1551 ( 22129 PWs)   bands (ev):

   -74.8557 -74.8321 -74.8172 -74.7941 -74.7869 -74.7814 -74.7770 -60.7018
   -60.6933 -54.8047 -54.7872 -43.2606 -43.2509 -43.2438 -43.2374 -43.2369
   -43.2330 -43.2299 -43.2295 -43.2276 -43.2263 -43.2198 -43.2161 -43.2149
   -43.2072 -43.2049 -43.2037 -43.2017 -43.2013 -43.2004 -43.1975 -43.1960
   -43.1954 -43.1935 -43.1933 -43.1924 -43.1907 -43.1858 -43.1823 -43.1819
   -43.1813 -43.1786 -43.1761 -43.1695 -43.1690 -43.1642 -43.1635 -43.1616
   -43.1608 -43.1602 -43.1593 -43.1587 -43.1578 -43.1567 -43.1556 -43.1554
   -43.1444 -43.1425 -43.1382 -43.1364 -29.1178 -29.0902 -29.0834 -29.0367
   -29.0246 -29.0071 -28.9761 -28.9610 -28.9407 -28.9208 -28.9114 -28.8959
   -28.8838 -28.8695 -28.8609 -28.8438 -28.8401 -28.8250 -28.8043 -28.7931
   -28.7905 -26.4550 -26.4357 -26.4247 -26.4148 -26.4047 -26.3507 -22.7590
   -22.7126 -22.6453 -22.6306 -22.6141 -22.5594  15.5322  17.3206  17.6128
    17.7779  17.8793  18.0200  18.1343  18.2135  18.2633  18.3621  18.4589
    18.5714  18.7403  18.9275  19.1395  19.2410  19.4370  19.5997  19.6619
    19.7225  19.8506  19.9857  20.0773  20.1963  20.6067  20.6198  20.6647
    20.8015  20.8688  20.9409  20.9986  21.0778  21.1584  21.2015  21.2775
    21.5178  21.5909  21.6550  21.6886  21.8582  21.8956  21.9177  22.4497
    22.4938  22.6058  22.6606  22.7152  22.8398  22.9470  23.1094  23.2279
    23.3649  23.5366  23.6575  23.8001  23.8823  23.9357  24.0824  24.5553
    26.1314  26.5209  26.7398  27.4564  27.8803  28.0597  28.5568  29.7238
    30.3954  31.1591  31.6702  32.1731  32.7871  33.2147  34.7439  35.1295
    35.3941  35.6558  36.4284  37.5797  37.7692  38.0049  38.1487  38.4494

          k = 0.2934 0.2038 0.3102 ( 22147 PWs)   bands (ev):

   -74.8556 -74.8321 -74.8172 -74.7946 -74.7866 -74.7813 -74.7770 -60.7018
   -60.6933 -54.8047 -54.7872 -43.2606 -43.2509 -43.2438 -43.2374 -43.2369
   -43.2330 -43.2299 -43.2295 -43.2276 -43.2263 -43.2198 -43.2161 -43.2149
   -43.2072 -43.2049 -43.2037 -43.2017 -43.2013 -43.2004 -43.1975 -43.1960
   -43.1954 -43.1935 -43.1933 -43.1924 -43.1907 -43.1858 -43.1823 -43.1819
   -43.1813 -43.1786 -43.1761 -43.1695 -43.1690 -43.1642 -43.1635 -43.1616
   -43.1608 -43.1602 -43.1593 -43.1587 -43.1578 -43.1567 -43.1556 -43.1554
   -43.1444 -43.1425 -43.1382 -43.1364 -29.1202 -29.1050 -29.0685 -29.0345
   -29.0176 -28.9996 -28.9797 -28.9672 -28.9438 -28.9225 -28.9080 -28.8949
   -28.8830 -28.8735 -28.8638 -28.8460 -28.8383 -28.8239 -28.8062 -28.7929
   -28.7874 -26.4554 -26.4353 -26.4250 -26.4147 -26.4048 -26.3505 -22.7591
   -22.7127 -22.6455 -22.6306 -22.6140 -22.5593  16.2243  16.5264  17.5042
    17.6593  17.7967  18.0146  18.0987  18.1592  18.2662  18.3637  18.4226
    18.5425  18.7577  19.0351  19.2032  19.3783  19.4598  19.4897  19.6155
    19.7186  20.0757  20.1202  20.3038  20.3889  20.4643  20.5923  20.6955
    20.7384  20.8743  20.9083  20.9919  21.0429  21.1626  21.1904  21.2162
    21.3721  21.5760  21.6134  21.6946  21.7971  21.8808  21.9740  22.0812
    22.4888  22.6187  22.6509  22.7774  22.9119  22.9525  23.2535  23.3007
    23.3807  23.4178  23.7841  23.8387  23.9858  24.0318  24.3494  24.7609
    25.2457  25.7341  26.9240  27.6967  27.8819  28.5838  29.8112  30.2740
    30.5956  31.1342  31.5249  31.9030  32.0327  33.9473  34.1204  34.6077
    34.9339  36.1513  36.2129  36.5589  36.7217  37.4442  37.6780  38.1982

          k = 0.2110-0.0348-0.3102 ( 22133 PWs)   bands (ev):

   -74.8557 -74.8322 -74.8171 -74.7943 -74.7868 -74.7814 -74.7770 -60.7018
   -60.6933 -54.8047 -54.7872 -43.2606 -43.2509 -43.2438 -43.2374 -43.2369
   -43.2330 -43.2299 -43.2295 -43.2276 -43.2263 -43.2198 -43.2161 -43.2149
   -43.2072 -43.2049 -43.2037 -43.2017 -43.2013 -43.2004 -43.1975 -43.1960
   -43.1954 -43.1935 -43.1933 -43.1924 -43.1907 -43.1858 -43.1823 -43.1819
   -43.1813 -43.1786 -43.1761 -43.1695 -43.1690 -43.1642 -43.1635 -43.1616
   -43.1608 -43.1602 -43.1593 -43.1587 -43.1578 -43.1567 -43.1556 -43.1554
   -43.1444 -43.1425 -43.1382 -43.1364 -29.1200 -29.0983 -29.0577 -29.0372
   -29.0147 -29.0038 -28.9852 -28.9727 -28.9447 -28.9385 -28.9162 -28.8957
   -28.8847 -28.8683 -28.8579 -28.8399 -28.8336 -28.8166 -28.8072 -28.7952
   -28.7885 -26.4555 -26.4353 -26.4250 -26.4148 -26.4047 -26.3504 -22.7592
   -22.7129 -22.6453 -22.6304 -22.6140 -22.5594  15.6891  17.0900  17.4249
    17.6311  17.8575  18.0227  18.0618  18.2317  18.2918  18.4025  18.6836
    18.7247  18.8216  19.0484  19.2044  19.2585  19.5136  19.5653  19.8168
    19.8996  19.9908  20.0852  20.1387  20.1753  20.2818  20.4084  20.5818
    20.6636  20.6987  20.7775  20.8637  20.9761  21.0355  21.1397  21.2499
    21.2983  21.6105  21.6322  21.7630  21.9175  22.0334  22.0459  22.1906
    22.4869  22.6456  22.9533  22.9941  23.0333  23.2785  23.3852  23.4336
    23.5613  23.6150  23.7031  23.7744  23.8084  23.9966  24.1043  24.6725
    24.8315  25.0212  26.1118  26.7912  28.8099  28.9416  29.5941  30.1928
    31.0645  31.4365  32.2332  32.6549  33.2122  33.6382  34.0172  34.1626
    35.8186  36.0346  36.3033  36.5625  37.0126  37.1034  37.2574  37.5383

          k = 0.2316 0.0248-0.1551 ( 22114 PWs)   bands (ev):

   -74.8558 -74.8321 -74.8172 -74.7934 -74.7873 -74.7817 -74.7770 -60.7018
   -60.6933 -54.8047 -54.7872 -43.2606 -43.2509 -43.2438 -43.2374 -43.2369
   -43.2330 -43.2299 -43.2295 -43.2276 -43.2263 -43.2198 -43.2161 -43.2149
   -43.2072 -43.2049 -43.2037 -43.2017 -43.2013 -43.2004 -43.1975 -43.1960
   -43.1954 -43.1935 -43.1933 -43.1924 -43.1907 -43.1858 -43.1823 -43.1819
   -43.1813 -43.1786 -43.1761 -43.1695 -43.1690 -43.1642 -43.1635 -43.1616
   -43.1608 -43.1602 -43.1593 -43.1587 -43.1578 -43.1567 -43.1556 -43.1554
   -43.1444 -43.1425 -43.1382 -43.1364 -29.1113 -29.0876 -29.0670 -29.0405
   -29.0268 -28.9999 -28.9927 -28.9651 -28.9523 -28.9394 -28.9184 -28.8940
   -28.8849 -28.8682 -28.8490 -28.8438 -28.8305 -28.8119 -28.8045 -28.7971
   -28.7918 -26.4553 -26.4357 -26.4246 -26.4149 -26.4046 -26.3505 -22.7591
   -22.7130 -22.6450 -22.6304 -22.6140 -22.5594  15.2117  17.5251  17.6287
    17.7739  17.9022  18.0354  18.1070  18.2118  18.3488  18.4721  18.6824
    18.7968  19.0248  19.1057  19.2088  19.2909  19.3630  19.4546  19.7080
    19.8888  19.9546  20.0628  20.1086  20.1369  20.1999  20.3191  20.3870
    20.6068  20.6778  20.7081  20.8046  20.8895  21.0837  21.2058  21.2731
    21.4230  21.4739  21.8171  21.8616  22.0594  22.0920  22.1854  22.3576
    22.4772  22.5315  22.5575  22.8775  22.9365  23.0912  23.3480  23.5398
    23.6420  23.6819  23.7281  23.8673  23.8740  23.9734  24.4902  24.6228
    25.2243  25.4737  25.5739  26.3731  26.6195  28.2281  30.0627  31.4525
    31.4871  32.0849  32.1367  32.8527  33.1040  34.0691  34.2958  34.7109
    35.3260  35.4437  36.0831  37.0259  37.1526  37.3049  37.9953  38.0920

          k = 0.2522 0.2568 0.0000 ( 22135 PWs)   bands (ev):

   -74.8557 -74.8321 -74.8172 -74.7933 -74.7873 -74.7828 -74.7760 -60.7018
   -60.6933 -54.8047 -54.7872 -43.2606 -43.2509 -43.2438 -43.2374 -43.2369
   -43.2330 -43.2299 -43.2295 -43.2276 -43.2263 -43.2198 -43.2161 -43.2149
   -43.2072 -43.2049 -43.2037 -43.2017 -43.2013 -43.2004 -43.1975 -43.1960
   -43.1954 -43.1935 -43.1933 -43.1924 -43.1907 -43.1858 -43.1823 -43.1819
   -43.1813 -43.1786 -43.1761 -43.1695 -43.1690 -43.1642 -43.1635 -43.1616
   -43.1608 -43.1602 -43.1593 -43.1587 -43.1578 -43.1567 -43.1556 -43.1554
   -43.1444 -43.1425 -43.1382 -43.1364 -29.1235 -29.0923 -29.0724 -29.0444
   -29.0198 -29.0058 -28.9730 -28.9587 -28.9401 -28.9281 -28.9092 -28.9034
   -28.8850 -28.8740 -28.8581 -28.8403 -28.8266 -28.8248 -28.8096 -28.7995
   -28.7882 -26.4550 -26.4355 -26.4249 -26.4151 -26.4042 -26.3510 -22.7591
   -22.7126 -22.6453 -22.6305 -22.6142 -22.5594  15.5890  17.2298  17.4745
    17.6643  17.8645  18.0262  18.1929  18.2733  18.3104  18.5388  18.5858
    18.6529  18.7142  18.8803  18.9052  19.2745  19.3492  19.3894  19.4980
    19.8952  19.9176  20.1215  20.3448  20.3810  20.4718  20.5798  20.7025
    20.7752  20.8014  20.8990  20.9174  21.0586  21.2191  21.3149  21.4073
    21.4523  21.5564  21.5758  21.6370  21.8334  21.9453  22.0717  22.1244
    22.3649  22.5033  22.5436  22.7200  23.0938  23.3139  23.4387  23.4960
    23.5709  23.5953  23.6420  23.7477  23.7870  23.8404  23.9273  24.1607
    24.7056  26.2758  27.2486  27.7240  28.4745  28.7515  29.4097  29.8950
    30.2751  30.7381  31.1538  31.5685  32.6408  33.0059  33.9667  35.4083
    35.8082  35.9502  36.8999  37.0408  37.1990  37.5702  38.2951  38.8395

          k = 0.2728 0.3164 0.1551 ( 22123 PWs)   bands (ev):

   -74.8556 -74.8322 -74.8172 -74.7939 -74.7869 -74.7826 -74.7760 -60.7018
   -60.6933 -54.8047 -54.7872 -43.2606 -43.2509 -43.2438 -43.2374 -43.2369
   -43.2330 -43.2299 -43.2295 -43.2276 -43.2263 -43.2198 -43.2161 -43.2149
   -43.2072 -43.2049 -43.2037 -43.2017 -43.2013 -43.2004 -43.1975 -43.1960
   -43.1954 -43.1935 -43.1933 -43.1924 -43.1907 -43.1858 -43.1823 -43.1819
   -43.1813 -43.1786 -43.1761 -43.1695 -43.1690 -43.1642 -43.1635 -43.1616
   -43.1608 -43.1602 -43.1593 -43.1587 -43.1578 -43.1567 -43.1556 -43.1554
   -43.1444 -43.1425 -43.1382 -43.1364 -29.1278 -29.1000 -29.0718 -29.0302
   -29.0200 -29.0036 -28.9760 -28.9591 -28.9434 -28.9278 -28.9075 -28.8954
   -28.8857 -28.8670 -28.8623 -28.8446 -28.8310 -28.8268 -28.8068 -28.8007
   -28.7892 -26.4553 -26.4351 -26.4252 -26.4151 -26.4043 -26.3508 -22.7591
   -22.7123 -22.6456 -22.6307 -22.6142 -22.5593  16.0808  16.9915  17.2788
    17.6536  17.8534  17.8923  17.9927  18.1078  18.2472  18.4532  18.5648
    18.5989  18.6895  18.8916  19.0382  19.2197  19.3086  19.6255  19.7136
    19.7758  19.8664  20.1997  20.2758  20.3190  20.5253  20.7930  20.8603
    20.8845  20.9415  20.9692  21.0174  21.1217  21.1691  21.2442  21.3084
    21.3287  21.4720  21.5523  21.6906  21.7784  22.0192  22.0905  22.1780
    22.2636  22.3138  22.5814  22.7278  23.0278  23.1170  23.1597  23.2523
    23.5082  23.5951  23.6596  23.7693  23.7873  23.8691  23.9325  23.9990
    26.5177  26.8476  27.2713  27.4254  28.1932  28.9780  29.3987  29.7929
    30.2835  30.4030  31.0494  31.3176  31.9448  33.4603  34.2169  34.6676
    35.3466  35.5689  35.9144  36.6167  37.2306  38.1631  38.4071  38.5614

          k = 0.2934 0.3761 0.3102 ( 22106 PWs)   bands (ev):

   -74.8557 -74.8321 -74.8171 -74.7943 -74.7866 -74.7827 -74.7760 -60.7018
   -60.6933 -54.8047 -54.7872 -43.2606 -43.2509 -43.2438 -43.2374 -43.2369
   -43.2330 -43.2299 -43.2295 -43.2276 -43.2263 -43.2198 -43.2161 -43.2149
   -43.2072 -43.2049 -43.2037 -43.2017 -43.2013 -43.2004 -43.1975 -43.1960
   -43.1954 -43.1935 -43.1933 -43.1924 -43.1907 -43.1858 -43.1823 -43.1819
   -43.1813 -43.1786 -43.1761 -43.1695 -43.1690 -43.1642 -43.1635 -43.1616
   -43.1608 -43.1602 -43.1593 -43.1587 -43.1578 -43.1567 -43.1556 -43.1554
   -43.1444 -43.1425 -43.1382 -43.1364 -29.1169 -29.1049 -29.0613 -29.0413
   -29.0141 -28.9968 -28.9876 -28.9631 -28.9445 -28.9383 -28.9182 -28.9009
   -28.8797 -28.8646 -28.8548 -28.8365 -28.8300 -28.8252 -28.8065 -28.8017
   -28.7895 -26.4554 -26.4351 -26.4252 -26.4152 -26.4042 -26.3506 -22.7592
   -22.7124 -22.6457 -22.6306 -22.6140 -22.5593  16.3637  16.8135  17.1831
    17.5065  17.7564  17.9726  18.0273  18.2166  18.2651  18.3016  18.4186
    18.6796  18.8002  18.9291  19.1034  19.4170  19.4953  19.5325  19.6005
    19.7167  19.9417  20.0458  20.4245  20.4855  20.5587  20.6072  20.6602
    20.7730  20.8325  20.9911  21.0563  21.1294  21.1612  21.2172  21.2404
    21.3604  21.4205  21.4998  21.5939  21.7099  22.0253  22.1346  22.1999
    22.4716  22.5543  22.5718  22.8948  22.9652  22.9973  23.0316  23.3284
    23.6389  23.6725  23.7423  23.8254  23.8489  23.9011  23.9851  24.1644
    25.3591  25.7330  26.4582  28.0394  29.1713  29.6632  30.0523  30.3794
    30.5274  30.8059  31.2954  31.9126  32.5259  33.2419  33.4149  34.0512
    34.8119  35.1038  35.7943  36.7923  37.2039  37.4325  37.5076  37.9709

          k = 0.2110 0.1375-0.3102 ( 22084 PWs)   bands (ev):

   -74.8558 -74.8320 -74.8171 -74.7939 -74.7867 -74.7829 -74.7760 -60.7018
   -60.6933 -54.8047 -54.7872 -43.2606 -43.2509 -43.2438 -43.2374 -43.2369
   -43.2330 -43.2299 -43.2295 -43.2276 -43.2263 -43.2198 -43.2161 -43.2149
   -43.2072 -43.2049 -43.2037 -43.2017 -43.2013 -43.2004 -43.1975 -43.1960
   -43.1954 -43.1935 -43.1933 -43.1924 -43.1907 -43.1858 -43.1823 -43.1819
   -43.1813 -43.1786 -43.1761 -43.1695 -43.1690 -43.1642 -43.1635 -43.1616
   -43.1608 -43.1602 -43.1593 -43.1587 -43.1578 -43.1567 -43.1556 -43.1554
   -43.1444 -43.1425 -43.1382 -43.1364 -29.1106 -29.0894 -29.0675 -29.0386
   -29.0231 -29.0084 -28.9835 -28.9667 -28.9547 -28.9334 -28.9237 -28.9008
   -28.8862 -28.8648 -28.8450 -28.8346 -28.8305 -28.8173 -28.8057 -28.8033
   -28.7887 -26.4552 -26.4355 -26.4248 -26.4154 -26.4041 -26.3507 -22.7592
   -22.7126 -22.6455 -22.6304 -22.6140 -22.5593  15.7794  17.1668  17.4313
    17.5231  17.7487  17.9358  18.0561  18.1256  18.3429  18.5367  18.6341
    18.7368  18.8450  19.0502  19.1953  19.3060  19.4625  19.6885  19.8127
    19.8744  19.9667  20.0933  20.2189  20.2725  20.3566  20.4005  20.4949
    20.5810  20.7657  20.7772  20.8191  20.9368  21.0151  21.1028  21.2090
    21.3438  21.5707  21.6706  21.7803  21.8297  21.9782  22.0992  22.2518
    22.5422  22.6908  22.7585  22.9456  23.1286  23.3479  23.4343  23.4877
    23.6098  23.6654  23.7648  23.8242  23.9435  24.0659  24.0990  24.2011
    24.2860  24.3779  26.4543  27.8512  28.0126  29.7610  30.4266  31.1315
    31.4351  31.6202  32.0029  32.2523  32.6993  33.0398  33.8443  34.9080
    35.1409  35.5424  35.6487  35.8867  36.1140  36.4345  36.7803  37.6439

          k = 0.2316 0.1971-0.1551 ( 22118 PWs)   bands (ev):

   -74.8558 -74.8320 -74.8172 -74.7933 -74.7872 -74.7830 -74.7759 -60.7018
   -60.6933 -54.8047 -54.7872 -43.2606 -43.2509 -43.2438 -43.2374 -43.2369
   -43.2330 -43.2299 -43.2295 -43.2276 -43.2263 -43.2198 -43.2161 -43.2149
   -43.2072 -43.2049 -43.2037 -43.2017 -43.2013 -43.2004 -43.1975 -43.1960
   -43.1954 -43.1935 -43.1933 -43.1924 -43.1907 -43.1858 -43.1823 -43.1819
   -43.1813 -43.1786 -43.1761 -43.1695 -43.1690 -43.1642 -43.1635 -43.1616
   -43.1608 -43.1602 -43.1593 -43.1587 -43.1578 -43.1567 -43.1556 -43.1554
   -43.1444 -43.1425 -43.1382 -43.1364 -29.1073 -29.0950 -29.0603 -29.0489
   -29.0353 -29.0007 -28.9844 -28.9612 -28.9410 -28.9327 -28.9227 -28.8994
   -28.8885 -28.8679 -28.8539 -28.8381 -28.8281 -28.8131 -28.8117 -28.7986
   -28.7880 -26.4549 -26.4358 -26.4246 -26.4153 -26.4041 -26.3510 -22.7592
   -22.7127 -22.6453 -22.6304 -22.6141 -22.5594  15.4790  17.2655  17.5885
    17.7182  17.8018  17.9406  18.0882  18.2070  18.5186  18.5635  18.6266
    18.6813  18.7334  18.9252  18.9822  19.2055  19.5206  19.6330  19.8535
    19.9424  19.9946  20.0335  20.1043  20.2744  20.3868  20.6209  20.6641
    20.7050  20.7527  20.8198  20.8938  20.9560  21.0082  21.0703  21.1598
    21.2449  21.3277  21.4389  21.9699  22.0139  22.0578  22.0678  22.3359
    22.4276  22.5886  22.6282  22.8970  23.1056  23.2864  23.3220  23.5538
    23.5986  23.6350  23.7060  23.8662  23.8999  23.9531  24.0420  24.2561
    24.7266  25.4526  25.5667  27.4277  27.6941  29.4618  29.9467  31.0236
    31.4228  31.7302  32.0155  32.5228  32.8465  33.2157  33.9012  34.6792
    34.7731  35.0464  35.5893  36.6657  37.3096  37.4616  37.6356  38.0291

          k = 0.2522 0.4291 0.0000 ( 22128 PWs)   bands (ev):

   -74.8557 -74.8322 -74.8172 -74.7932 -74.7873 -74.7832 -74.7756 -60.7018
   -60.6933 -54.8047 -54.7872 -43.2606 -43.2509 -43.2438 -43.2374 -43.2369
   -43.2330 -43.2299 -43.2295 -43.2276 -43.2263 -43.2198 -43.2161 -43.2149
   -43.2072 -43.2049 -43.2037 -43.2017 -43.2013 -43.2004 -43.1975 -43.1960
   -43.1954 -43.1935 -43.1933 -43.1924 -43.1907 -43.1858 -43.1823 -43.1819
   -43.1813 -43.1786 -43.1761 -43.1695 -43.1690 -43.1642 -43.1635 -43.1616
   -43.1608 -43.1602 -43.1593 -43.1587 -43.1578 -43.1567 -43.1556 -43.1554
   -43.1444 -43.1425 -43.1382 -43.1364 -29.1331 -29.0939 -29.0666 -29.0364
   -29.0111 -29.0036 -28.9741 -28.9649 -28.9394 -28.9275 -28.9157 -28.8950
   -28.8854 -28.8746 -28.8686 -28.8464 -28.8290 -28.8166 -28.8078 -28.8049
   -28.7818 -26.4554 -26.4351 -26.4253 -26.4153 -26.4039 -26.3507 -22.7592
   -22.7126 -22.6454 -22.6304 -22.6141 -22.5594  16.1943  16.6112  17.5088
    17.5981  17.7447  17.8517  18.0864  18.1287  18.2749  18.3794  18.6501
    18.7458  18.8001  19.0343  19.1577  19.2819  19.3417  19.4107  19.8213
    19.9844  20.0047  20.0642  20.1288  20.2857  20.3761  20.5174  20.6249
    20.6991  20.7654  20.9064  20.9289  21.0155  21.1233  21.2084  21.4193
    21.5129  21.6075  21.7521  21.8400  21.8813  21.9401  22.0912  22.1420
    22.3318  22.6741  22.7660  22.8349  22.9049  23.0241  23.1365  23.2654
    23.3970  23.4656  23.6904  23.7226  23.8015  23.8848  24.0806  24.2846
    25.0243  26.2821  27.8537  27.9404  28.4174  28.5807  29.3634  29.8401
    30.6041  30.8307  31.1392  31.7513  32.4697  32.7531  34.5229  34.7791
    35.4359  36.2418  36.3209  36.9247  37.2739  37.4595  37.6408  38.0507

          k = 0.2728 0.4887 0.1551 ( 22146 PWs)   bands (ev):

   -74.8557 -74.8321 -74.8172 -74.7937 -74.7868 -74.7833 -74.7756 -60.7018
   -60.6933 -54.8047 -54.7872 -43.2606 -43.2509 -43.2438 -43.2374 -43.2369
   -43.2330 -43.2299 -43.2295 -43.2276 -43.2263 -43.2198 -43.2161 -43.2149
   -43.2072 -43.2049 -43.2037 -43.2017 -43.2013 -43.2004 -43.1975 -43.1960
   -43.1954 -43.1935 -43.1933 -43.1924 -43.1907 -43.1858 -43.1823 -43.1819
   -43.1813 -43.1786 -43.1761 -43.1695 -43.1690 -43.1642 -43.1635 -43.1616
   -43.1608 -43.1602 -43.1593 -43.1587 -43.1578 -43.1567 -43.1556 -43.1554
   -43.1444 -43.1425 -43.1382 -43.1364 -29.1228 -29.1000 -29.0629 -29.0417
   -29.0096 -28.9996 -28.9825 -28.9657 -28.9427 -28.9330 -28.9216 -28.9022
   -28.8786 -28.8704 -28.8553 -28.8374 -28.8306 -28.8247 -28.8084 -28.8027
   -28.7841 -26.4555 -26.4352 -26.4252 -26.4155 -26.4039 -26.3505 -22.7592
   -22.7124 -22.6457 -22.6305 -22.6141 -22.5593  16.2271  16.9862  17.2039
    17.6214  17.7292  17.7932  17.9955  18.2895  18.3176  18.3581  18.4734
    18.7408  18.7734  18.8225  18.9528  19.3175  19.4795  19.5822  19.6174
    19.6671  20.0639  20.0799  20.4393  20.5539  20.6218  20.6904  20.7651
    20.8023  20.8446  20.9468  20.9683  21.0458  21.0826  21.1723  21.2568
    21.3207  21.3557  21.4706  21.6563  21.9505  22.0611  22.1332  22.2074
    22.3373  22.3718  22.5491  22.7702  23.0625  23.1211  23.2444  23.2657
    23.4122  23.4823  23.6461  23.7176  23.8110  23.9235  23.9530  24.0604
    25.4622  26.8214  26.9479  27.4163  28.7917  29.2937  29.5590  30.5049
    31.1021  31.2187  31.3741  31.7334  32.1672  32.6171  33.6816  34.2142
    34.4197  34.9184  36.5249  36.8824  37.1481  37.5010  38.2503  38.3899

          k = 0.2934 0.5484 0.3102 ( 22123 PWs)   bands (ev):

   -74.8557 -74.8320 -74.8171 -74.7941 -74.7865 -74.7834 -74.7756 -60.7018
   -60.6933 -54.8047 -54.7872 -43.2606 -43.2509 -43.2438 -43.2374 -43.2369
   -43.2330 -43.2299 -43.2295 -43.2276 -43.2263 -43.2198 -43.2161 -43.2149
   -43.2072 -43.2049 -43.2037 -43.2017 -43.2013 -43.2004 -43.1975 -43.1960
   -43.1954 -43.1935 -43.1933 -43.1924 -43.1907 -43.1858 -43.1823 -43.1819
   -43.1813 -43.1786 -43.1761 -43.1695 -43.1690 -43.1642 -43.1635 -43.1616
   -43.1608 -43.1602 -43.1593 -43.1587 -43.1578 -43.1567 -43.1556 -43.1554
   -43.1444 -43.1425 -43.1382 -43.1364 -29.1079 -29.0918 -29.0665 -29.0509
   -29.0172 -29.0069 -28.9783 -28.9611 -28.9515 -28.9400 -28.9208 -28.9065
   -28.8832 -28.8643 -28.8435 -28.8370 -28.8329 -28.8255 -28.8068 -28.8004
   -28.7834 -26.4552 -26.4356 -26.4248 -26.4157 -26.4038 -26.3506 -22.7593
   -22.7124 -22.6458 -22.6305 -22.6139 -22.5593  16.2700  16.8773  17.4260
    17.5428  17.7406  17.8999  18.0272  18.1242  18.3021  18.4022  18.5450
    18.5797  18.7491  18.8349  19.1482  19.2216  19.3163  19.6486  19.7827
    19.9094  20.1480  20.2268  20.2719  20.3475  20.4328  20.4571  20.5755
    20.6991  20.7874  20.8773  20.9589  21.0128  21.1288  21.1437  21.3062
    21.3941  21.4772  21.7226  21.7862  21.8909  22.1413  22.1617  22.2121
    22.3031  22.4041  22.6592  22.8174  22.8731  22.9857  23.1033  23.3160
    23.5007  23.5316  23.5586  23.8682  23.9415  24.1118  24.1282  24.1773
    24.4628  25.6927  26.6275  28.8399  29.0247  29.4798  30.1567  30.6786
    30.9884  31.2979  31.8456  32.0668  32.8952  33.3264  33.7255  34.2536
    34.4542  34.6890  35.8055  35.9611  36.3051  36.4337  36.7269  37.6460

          k = 0.2110 0.3097-0.3102 ( 22124 PWs)   bands (ev):

   -74.8558 -74.8320 -74.8171 -74.7939 -74.7867 -74.7834 -74.7756 -60.7018
   -60.6932 -54.8047 -54.7872 -43.2606 -43.2509 -43.2438 -43.2374 -43.2369
   -43.2330 -43.2299 -43.2295 -43.2276 -43.2263 -43.2198 -43.2161 -43.2149
   -43.2072 -43.2049 -43.2037 -43.2017 -43.2013 -43.2004 -43.1975 -43.1960
   -43.1954 -43.1935 -43.1933 -43.1924 -43.1907 -43.1858 -43.1823 -43.1819
   -43.1813 -43.1786 -43.1761 -43.1695 -43.1690 -43.1642 -43.1635 -43.1616
   -43.1608 -43.1602 -43.1593 -43.1587 -43.1578 -43.1567 -43.1556 -43.1554
   -43.1444 -43.1425 -43.1382 -43.1364 -29.1068 -29.0901 -29.0635 -29.0510
   -29.0293 -29.0081 -28.9728 -28.9598 -28.9474 -28.9342 -28.9221 -28.9021
   -28.8918 -28.8670 -28.8514 -28.8443 -28.8314 -28.8201 -28.8046 -28.7980
   -28.7806 -26.4549 -26.4358 -26.4246 -26.4157 -26.4038 -26.3509 -22.7593
   -22.7126 -22.6456 -22.6303 -22.6139 -22.5593  16.1343  16.9108  17.4351
    17.5580  17.7135  17.8737  18.0560  18.2044  18.3679  18.4425  18.5481
    18.6427  18.7880  18.9615  18.9916  19.0572  19.4786  19.7116  19.7909
    20.1192  20.1828  20.3142  20.3426  20.4051  20.4426  20.5120  20.5528
    20.6158  20.6530  20.7090  20.7638  20.8846  20.9306  20.9834  21.1258
    21.1890  21.4319  21.6109  22.0112  22.1824  22.2101  22.3290  22.3544
    22.4700  22.4900  22.6547  22.7180  22.8774  23.0659  23.2696  23.2980
    23.3292  23.4325  23.5943  23.8186  23.9866  24.0794  24.1359  24.5743
    24.7129  24.9619  26.8301  26.9482  29.4871  29.9665  30.2363  30.7459
    30.8846  31.6877  32.0326  32.7239  33.3827  33.5460  33.7455  34.2026
    35.1217  35.5403  35.6483  35.7527  35.9487  36.0241  36.2386  37.2113

          k = 0.2316 0.3694-0.1551 ( 22125 PWs)   bands (ev):

   -74.8557 -74.8321 -74.8172 -74.7934 -74.7872 -74.7833 -74.7756 -60.7018
   -60.6933 -54.8047 -54.7872 -43.2606 -43.2509 -43.2438 -43.2374 -43.2369
   -43.2330 -43.2299 -43.2295 -43.2276 -43.2263 -43.2198 -43.2161 -43.2149
   -43.2072 -43.2049 -43.2037 -43.2017 -43.2013 -43.2004 -43.1975 -43.1960
   -43.1954 -43.1935 -43.1933 -43.1924 -43.1907 -43.1858 -43.1823 -43.1819
   -43.1813 -43.1786 -43.1761 -43.1695 -43.1690 -43.1642 -43.1635 -43.1616
   -43.1608 -43.1602 -43.1593 -43.1587 -43.1578 -43.1567 -43.1556 -43.1554
   -43.1444 -43.1425 -43.1382 -43.1364 -29.1224 -29.0939 -29.0618 -29.0509
   -29.0162 -29.0004 -28.9772 -28.9534 -28.9417 -28.9317 -28.9197 -28.9007
   -28.8877 -28.8736 -28.8632 -28.8510 -28.8295 -28.8137 -28.8083 -28.7996
   -28.7799 -26.4550 -26.4355 -26.4249 -26.4155 -26.4039 -26.3509 -22.7593
   -22.7128 -22.6454 -22.6303 -22.6140 -22.5594  16.0410  16.8810  17.2997
    17.6283  17.7401  18.0354  18.1352  18.2227  18.3084  18.3968  18.5198
    18.6213  18.7881  18.9971  19.1667  19.2183  19.4170  19.5474  19.7956
    19.8705  20.0173  20.0345  20.0944  20.4173  20.5180  20.5618  20.6539
    20.7096  20.7787  20.8325  20.8833  20.9402  21.0099  21.1214  21.2778
    21.4192  21.5962  21.6293  21.8587  21.9401  22.0982  22.1631  22.2438
    22.3847  22.5099  22.6830  22.7534  22.8972  23.0974  23.3060  23.3374
    23.3972  23.5549  23.6203  23.8081  23.8754  23.9998  24.1086  24.6064
    24.8459  25.5864  26.3058  27.5383  28.7681  29.0633  30.3049  30.6202
    30.9710  31.1152  31.4950  31.8484  32.8884  33.8269  34.2682  34.4328
    35.5658  35.8684  35.9187  36.1667  36.4426  37.0294  37.4470  37.4964

          k = 0.2522-0.2601 0.0000 ( 22152 PWs)   bands (ev):

   -74.8557 -74.8322 -74.8172 -74.7933 -74.7873 -74.7826 -74.7762 -60.7018
   -60.6933 -54.8047 -54.7872 -43.2606 -43.2509 -43.2438 -43.2374 -43.2369
   -43.2330 -43.2299 -43.2295 -43.2276 -43.2263 -43.2198 -43.2161 -43.2149
   -43.2072 -43.2049 -43.2037 -43.2017 -43.2013 -43.2004 -43.1975 -43.1960
   -43.1954 -43.1935 -43.1933 -43.1924 -43.1907 -43.1858 -43.1823 -43.1819
   -43.1813 -43.1786 -43.1761 -43.1695 -43.1690 -43.1642 -43.1635 -43.1616
   -43.1608 -43.1602 -43.1593 -43.1587 -43.1578 -43.1567 -43.1556 -43.1554
   -43.1444 -43.1425 -43.1382 -43.1364 -29.1267 -29.0934 -29.0595 -29.0399
   -29.0116 -28.9990 -28.9820 -28.9683 -28.9449 -28.9345 -28.9226 -28.8980
   -28.8855 -28.8750 -28.8546 -28.8447 -28.8306 -28.8190 -28.8072 -28.7998
   -28.7797 -26.4556 -26.4354 -26.4250 -26.4153 -26.4042 -26.3502 -22.7592
   -22.7129 -22.6452 -22.6303 -22.6140 -22.5594  15.6049  17.2180  17.6185
    17.6997  17.8192  17.9468  18.0798  18.1582  18.3793  18.4902  18.5769
    18.6527  18.7026  18.9370  18.9958  19.3419  19.4859  19.7230  19.8125
    19.9859  20.0193  20.1099  20.1665  20.2361  20.4514  20.4900  20.5684
    20.6284  20.7248  20.7868  20.8629  20.9135  20.9812  21.0789  21.1659
    21.2537  21.4989  21.6590  21.8133  21.9018  22.0977  22.1170  22.3898
    22.4706  22.5498  22.5991  22.6523  22.8858  23.0368  23.3262  23.3639
    23.4891  23.5548  23.6337  23.7335  23.9428  24.0674  24.4540  24.8079
    25.5060  25.7595  26.0943  27.4378  27.5014  28.6962  28.8458  29.8453
    31.0342  31.1777  32.7736  33.2462  33.6301  34.0423  34.5661  34.8995
    35.0827  35.2610  36.2501  36.4369  36.8123  37.0455  37.4904  37.8013

          k = 0.2728-0.2004 0.1551 ( 22132 PWs)   bands (ev):

   -74.8558 -74.8321 -74.8171 -74.7938 -74.7868 -74.7827 -74.7762 -60.7018
   -60.6933 -54.8047 -54.7872 -43.2606 -43.2509 -43.2438 -43.2374 -43.2369
   -43.2330 -43.2299 -43.2295 -43.2276 -43.2263 -43.2198 -43.2161 -43.2149
   -43.2072 -43.2049 -43.2037 -43.2017 -43.2013 -43.2004 -43.1975 -43.1960
   -43.1954 -43.1935 -43.1933 -43.1924 -43.1907 -43.1858 -43.1823 -43.1819
   -43.1813 -43.1786 -43.1761 -43.1695 -43.1690 -43.1642 -43.1635 -43.1616
   -43.1608 -43.1602 -43.1593 -43.1587 -43.1578 -43.1567 -43.1556 -43.1554
   -43.1444 -43.1425 -43.1382 -43.1364 -29.1075 -29.0915 -29.0674 -29.0534
   -29.0194 -29.0022 -28.9803 -28.9586 -28.9509 -28.9382 -28.9191 -28.9032
   -28.8853 -28.8699 -28.8469 -28.8440 -28.8309 -28.8246 -28.8053 -28.7963
   -28.7817 -26.4554 -26.4358 -26.4246 -26.4156 -26.4041 -26.3503 -22.7592
   -22.7127 -22.6455 -22.6305 -22.6140 -22.5593  15.6253  17.3625  17.6060
    17.7639  17.8343  17.9950  18.0790  18.1635  18.2453  18.3146  18.4780
    18.6234  18.8590  18.9450  19.0411  19.3890  19.4850  19.5943  19.6280
    19.9392  20.0294  20.0897  20.2384  20.2934  20.3282  20.4833  20.6096
    20.6948  20.7579  20.8147  20.8889  20.9404  20.9700  21.0867  21.3270
    21.4243  21.5642  21.6733  21.6851  21.7822  21.9124  22.0619  22.3166
    22.4645  22.4857  22.7779  22.8046  22.8680  22.9656  23.1415  23.2907
    23.4296  23.6750  23.8411  23.8879  24.0326  24.1090  24.3055  24.5679
    24.6697  25.8270  27.0675  27.1533  27.3449  28.3308  30.0501  30.7864
    30.9071  32.3800  32.7481  32.8127  33.0633  33.5008  33.9789  34.2251
    34.8310  35.4629  35.6831  36.1387  36.5594  36.8845  36.9884  38.0545

          k = 0.2934-0.1407 0.3102 ( 22116 PWs)   bands (ev):

   -74.8558 -74.8320 -74.8171 -74.7943 -74.7865 -74.7826 -74.7761 -60.7018
   -60.6933 -54.8047 -54.7872 -43.2606 -43.2509 -43.2438 -43.2374 -43.2369
   -43.2330 -43.2299 -43.2295 -43.2276 -43.2263 -43.2198 -43.2161 -43.2149
   -43.2072 -43.2049 -43.2037 -43.2017 -43.2013 -43.2004 -43.1975 -43.1960
   -43.1954 -43.1935 -43.1933 -43.1924 -43.1907 -43.1858 -43.1823 -43.1819
   -43.1813 -43.1786 -43.1761 -43.1695 -43.1690 -43.1642 -43.1635 -43.1616
   -43.1608 -43.1602 -43.1593 -43.1587 -43.1578 -43.1567 -43.1556 -43.1554
   -43.1444 -43.1425 -43.1382 -43.1364 -29.1054 -29.0815 -29.0687 -29.0605
   -29.0273 -29.0118 -28.9682 -28.9560 -28.9484 -28.9348 -28.9157 -28.9035
   -28.8902 -28.8692 -28.8541 -28.8458 -28.8365 -28.8241 -28.8023 -28.7937
   -28.7788 -26.4551 -26.4360 -26.4244 -26.4156 -26.4041 -26.3505 -22.7593
   -22.7127 -22.6456 -22.6304 -22.6138 -22.5593  15.9685  17.1417  17.4074
    17.6611  17.8272  18.0298  18.0814  18.1779  18.2529  18.3332  18.4302
    18.5377  18.6313  18.7560  19.3434  19.5119  19.6225  19.7367  19.8777
    19.9039  20.0034  20.0464  20.1041  20.2788  20.3483  20.4130  20.5037
    20.5821  20.6797  20.7767  20.8417  21.0264  21.1274  21.2282  21.3192
    21.3393  21.3998  21.5061  21.7069  22.0262  22.0927  22.2221  22.2743
    22.3894  22.5628  22.6166  22.7619  22.8518  22.9908  23.1876  23.3155
    23.5248  23.5499  23.6383  23.8177  23.8945  24.0371  24.1534  24.4822
    25.3229  25.8381  26.1973  27.5353  28.3291  28.8330  29.3219  31.4755
    31.7909  32.2444  32.3223  32.6897  33.2815  33.6260  33.9914  34.3617
    34.5740  34.9145  35.3291  36.2394  36.3252  36.4447  36.6013  36.7943

          k = 0.2110-0.3794-0.3102 ( 22111 PWs)   bands (ev):

   -74.8557 -74.8320 -74.8172 -74.7942 -74.7868 -74.7824 -74.7761 -60.7018
   -60.6933 -54.8047 -54.7872 -43.2606 -43.2509 -43.2438 -43.2374 -43.2369
   -43.2330 -43.2299 -43.2295 -43.2276 -43.2263 -43.2198 -43.2161 -43.2149
   -43.2072 -43.2049 -43.2037 -43.2017 -43.2013 -43.2004 -43.1975 -43.1960
   -43.1954 -43.1935 -43.1933 -43.1924 -43.1907 -43.1858 -43.1823 -43.1819
   -43.1813 -43.1786 -43.1761 -43.1695 -43.1690 -43.1642 -43.1635 -43.1616
   -43.1608 -43.1602 -43.1593 -43.1587 -43.1578 -43.1567 -43.1556 -43.1554
   -43.1444 -43.1425 -43.1382 -43.1364 -29.1163 -29.0938 -29.0684 -29.0471
   -29.0125 -29.0072 -28.9722 -28.9616 -28.9397 -28.9273 -28.9184 -28.8957
   -28.8911 -28.8743 -28.8707 -28.8563 -28.8328 -28.8174 -28.8044 -28.7937
   -28.7756 -26.4552 -26.4357 -26.4247 -26.4154 -26.4042 -26.3505 -22.7593
   -22.7129 -22.6454 -22.6303 -22.6138 -22.5593  16.4094  16.6469  17.1910
    17.6246  17.8786  17.9830  18.0495  18.1311  18.2589  18.3857  18.4960
    18.7268  18.8226  18.8407  19.0457  19.4854  19.6437  19.6854  19.7572
    19.8943  19.9827  20.0458  20.1231  20.1755  20.2700  20.6146  20.6892
    20.7329  20.7821  20.8081  20.8492  20.9513  21.0790  21.1447  21.1897
    21.3034  21.4947  21.5797  21.7229  21.8850  22.1703  22.3564  22.4160
    22.6171  22.6410  22.6834  22.7128  22.9509  22.9976  23.0909  23.1148
    23.2292  23.2805  23.4123  23.6656  23.8550  23.9353  24.0728  25.4740
    25.8308  26.0835  26.3963  26.9091  27.7093  28.1745  30.4366  30.5458
    31.3944  31.7022  32.8162  33.0530  33.5303  33.8808  34.1039  34.6496
    34.9099  35.1788  35.3154  36.1855  36.3296  36.6387  36.9175  37.0604

          k = 0.2316-0.3197-0.1551 ( 22126 PWs)   bands (ev):

   -74.8557 -74.8322 -74.8172 -74.7936 -74.7873 -74.7824 -74.7761 -60.7018
   -60.6933 -54.8047 -54.7872 -43.2606 -43.2509 -43.2438 -43.2374 -43.2369
   -43.2330 -43.2299 -43.2295 -43.2276 -43.2263 -43.2198 -43.2161 -43.2149
   -43.2072 -43.2049 -43.2037 -43.2017 -43.2013 -43.2004 -43.1975 -43.1960
   -43.1954 -43.1935 -43.1933 -43.1924 -43.1907 -43.1858 -43.1823 -43.1819
   -43.1813 -43.1786 -43.1761 -43.1695 -43.1690 -43.1642 -43.1635 -43.1616
   -43.1608 -43.1602 -43.1593 -43.1587 -43.1578 -43.1567 -43.1556 -43.1554
   -43.1444 -43.1425 -43.1382 -43.1364 -29.1311 -29.0930 -29.0585 -29.0428
   -29.0030 -29.0013 -28.9858 -28.9660 -28.9391 -28.9244 -28.9175 -28.8942
   -28.8852 -28.8818 -28.8750 -28.8534 -28.8298 -28.8101 -28.8094 -28.7988
   -28.7764 -26.4555 -26.4353 -26.4251 -26.4152 -26.4042 -26.3503 -22.7593
   -22.7131 -22.6452 -22.6302 -22.6139 -22.5594  15.9522  16.7878  17.5259
    17.7257  17.8224  17.9414  18.0215  18.1869  18.2714  18.4241  18.5614
    18.6236  19.0532  19.0827  19.1385  19.3374  19.5528  19.5998  19.6920
    19.7390  19.8714  19.9484  20.0411  20.1122  20.3275  20.5048  20.6576
    20.6874  20.7512  20.8886  20.9205  20.9769  21.0391  21.2971  21.3698
    21.5501  21.5962  21.7529  21.9099  21.9737  22.0102  22.0604  22.2370
    22.2948  22.4928  22.6348  22.6663  22.9188  23.0429  23.0960  23.1237
    23.2089  23.5356  23.6919  23.8084  23.9176  24.1264  24.1543  25.1141
    25.3760  26.6133  26.7483  26.9291  27.3654  28.5804  28.6701  29.9071
    30.9412  31.3148  32.5115  33.2807  33.8879  34.6209  34.9709  35.1822
    35.5363  35.6869  35.8501  35.9835  36.2399  36.8179  36.9427  37.4354

          k = 0.2522-0.0878 0.0000 ( 22130 PWs)   bands (ev):

   -74.8558 -74.8321 -74.8172 -74.7933 -74.7873 -74.7815 -74.7772 -60.7018
   -60.6933 -54.8047 -54.7872 -43.2606 -43.2509 -43.2438 -43.2374 -43.2369
   -43.2330 -43.2299 -43.2295 -43.2276 -43.2263 -43.2198 -43.2161 -43.2149
   -43.2072 -43.2049 -43.2037 -43.2017 -43.2013 -43.2004 -43.1975 -43.1960
   -43.1954 -43.1935 -43.1933 -43.1924 -43.1907 -43.1858 -43.1823 -43.1819
   -43.1813 -43.1786 -43.1761 -43.1695 -43.1690 -43.1642 -43.1635 -43.1616
   -43.1608 -43.1602 -43.1593 -43.1587 -43.1578 -43.1567 -43.1556 -43.1554
   -43.1444 -43.1425 -43.1382 -43.1364 -29.1098 -29.0887 -29.0674 -29.0486
   -29.0238 -29.0016 -28.9845 -28.9609 -28.9498 -28.9422 -28.9164 -28.8965
   -28.8804 -28.8762 -28.8507 -28.8466 -28.8287 -28.8193 -28.8039 -28.7961
   -28.7845 -26.4554 -26.4359 -26.4245 -26.4150 -26.4046 -26.3502 -22.7591
   -22.7131 -22.6450 -22.6304 -22.6140 -22.5594  15.1575  17.6488  17.7525
    17.8454  17.9611  18.0679  18.1467  18.3061  18.3900  18.4522  18.5603
    18.7232  18.7661  18.9004  18.9751  19.0846  19.6181  19.7087  19.8167
    19.8996  19.9989  20.0805  20.0947  20.1817  20.2819  20.3502  20.4177
    20.5637  20.6437  20.6939  20.7278  20.9049  21.0677  21.0993  21.1758
    21.2510  21.3968  21.5713  22.1324  22.2197  22.2778  22.3087  22.3761
    22.4236  22.4735  22.5515  22.6394  22.9328  23.2000  23.2723  23.3043
    23.4943  23.5379  23.6441  23.7341  23.7648  24.7959  24.9502  25.0646
    25.3640  25.4074  25.7559  25.9658  26.9863  27.2191  29.6262  30.2535
    31.0641  32.4367  33.0858  33.4715  33.8274  34.0205  34.5592  35.2144
    35.5162  35.7640  36.5297  36.7548  36.9861  37.0983  37.2345  37.8710

          k = 0.2728-0.0281 0.1551 ( 22136 PWs)   bands (ev):

   -74.8558 -74.8320 -74.8172 -74.7940 -74.7868 -74.7814 -74.7771 -60.7018
   -60.6933 -54.8047 -54.7872 -43.2606 -43.2509 -43.2438 -43.2374 -43.2369
   -43.2330 -43.2299 -43.2295 -43.2276 -43.2263 -43.2198 -43.2161 -43.2149
   -43.2072 -43.2049 -43.2037 -43.2017 -43.2013 -43.2004 -43.1975 -43.1960
   -43.1954 -43.1935 -43.1933 -43.1924 -43.1907 -43.1858 -43.1823 -43.1819
   -43.1813 -43.1786 -43.1761 -43.1695 -43.1690 -43.1642 -43.1635 -43.1616
   -43.1608 -43.1602 -43.1593 -43.1587 -43.1578 -43.1567 -43.1556 -43.1554
   -43.1444 -43.1425 -43.1382 -43.1364 -29.1045 -29.0860 -29.0696 -29.0591
   -29.0282 -29.0131 -28.9727 -28.9621 -28.9419 -28.9245 -28.9135 -28.9055
   -28.8817 -28.8734 -28.8579 -28.8473 -28.8323 -28.8241 -28.8017 -28.7932
   -28.7841 -26.4551 -26.4361 -26.4243 -26.4151 -26.4046 -26.3504 -22.7591
   -22.7128 -22.6453 -22.6305 -22.6140 -22.5594  15.3632  17.5421  17.6818
    17.7860  17.9458  17.9849  18.1167  18.2387  18.2940  18.4221  18.5413
    18.6014  18.7040  18.9788  19.1791  19.5291  19.6158  19.6703  19.7416
    19.7803  19.8624  19.9317  19.9892  20.0503  20.1700  20.2475  20.3519
    20.5537  20.7097  20.7692  21.0477  21.1606  21.2487  21.2634  21.4231
    21.4603  21.5949  21.6635  21.7357  21.8461  22.0421  22.1315  22.3274
    22.4455  22.5128  22.7005  22.7952  22.8809  22.9402  23.0420  23.0624
    23.6303  23.7053  23.8100  23.8465  23.9137  24.0329  24.9524  24.9984
    25.2031  25.3291  25.9789  26.9675  27.3881  28.1262  29.4394  29.9541
    31.1569  31.7577  32.3691  32.9406  34.0951  34.3204  34.6587  35.1141
    35.3031  35.4905  35.8217  36.0802  36.6440  37.2274  37.3856  37.7074

          k = 0.2934 0.0315 0.3102 ( 22144 PWs)   bands (ev):

   -74.8557 -74.8321 -74.8172 -74.7946 -74.7866 -74.7812 -74.7771 -60.7018
   -60.6933 -54.8047 -54.7872 -43.2606 -43.2509 -43.2438 -43.2374 -43.2369
   -43.2330 -43.2299 -43.2295 -43.2276 -43.2263 -43.2198 -43.2161 -43.2149
   -43.2072 -43.2049 -43.2037 -43.2017 -43.2013 -43.2004 -43.1975 -43.1960
   -43.1954 -43.1935 -43.1933 -43.1924 -43.1907 -43.1858 -43.1823 -43.1819
   -43.1813 -43.1786 -43.1761 -43.1695 -43.1690 -43.1642 -43.1635 -43.1616
   -43.1608 -43.1602 -43.1593 -43.1587 -43.1578 -43.1567 -43.1556 -43.1554
   -43.1444 -43.1425 -43.1382 -43.1364 -29.1120 -29.0940 -29.0793 -29.0392
   -29.0222 -29.0052 -28.9759 -28.9618 -28.9414 -28.9234 -28.9111 -28.8960
   -28.8853 -28.8753 -28.8639 -28.8530 -28.8397 -28.8235 -28.8034 -28.7918
   -28.7794 -26.4552 -26.4358 -26.4246 -26.4150 -26.4047 -26.3504 -22.7592
   -22.7129 -22.6454 -22.6305 -22.6139 -22.5593  15.9394  16.8578  17.5250
    17.7494  17.7808  17.9688  18.1368  18.2113  18.3027  18.3590  18.4067
    18.6015  18.7252  18.8505  19.2818  19.4477  19.6096  19.6871  19.7285
    19.8115  19.8369  20.0314  20.2015  20.3643  20.5083  20.6067  20.6271
    20.6768  20.7249  20.7981  20.8516  20.9030  20.9795  21.1836  21.2474
    21.3277  21.4998  21.6166  21.8160  21.8801  22.0476  22.0871  22.2134
    22.3737  22.6141  22.7650  22.8462  22.8756  23.0897  23.1706  23.2134
    23.2812  23.3538  23.5536  23.7820  23.9227  24.0556  24.3009  25.3316
    25.7083  26.0132  26.3964  26.9180  27.3172  28.7782  29.2591  30.5275
    31.0728  31.5604  32.0068  32.9793  33.0961  34.0261  34.2408  35.0374
    35.2685  35.4014  35.6216  36.0538  36.6699  36.7487  37.0476  37.3802

          k = 0.2110-0.2071-0.3102 ( 22140 PWs)   bands (ev):

   -74.8557 -74.8322 -74.8172 -74.7944 -74.7869 -74.7810 -74.7771 -60.7018
   -60.6933 -54.8047 -54.7872 -43.2606 -43.2509 -43.2438 -43.2374 -43.2369
   -43.2330 -43.2299 -43.2295 -43.2276 -43.2263 -43.2198 -43.2161 -43.2149
   -43.2072 -43.2049 -43.2037 -43.2017 -43.2013 -43.2004 -43.1975 -43.1960
   -43.1954 -43.1935 -43.1933 -43.1924 -43.1907 -43.1858 -43.1823 -43.1819
   -43.1813 -43.1786 -43.1761 -43.1695 -43.1690 -43.1642 -43.1635 -43.1616
   -43.1608 -43.1602 -43.1593 -43.1587 -43.1578 -43.1567 -43.1556 -43.1554
   -43.1444 -43.1425 -43.1382 -43.1364 -29.1241 -29.0982 -29.0607 -29.0416
   -29.0097 -28.9959 -28.9834 -28.9765 -28.9372 -28.9195 -28.9151 -28.8937
   -28.8828 -28.8815 -28.8755 -28.8523 -28.8332 -28.8171 -28.8068 -28.7938
   -28.7778 -26.4555 -26.4354 -26.4249 -26.4148 -26.4047 -26.3502 -22.7592
   -22.7131 -22.6452 -22.6303 -22.6139 -22.5593  15.9902  16.7490  17.3525
    17.7342  17.8545  18.0361  18.0616  18.2423  18.2902  18.4330  18.5545
    18.6849  18.8050  18.8742  19.3106  19.4963  19.5394  19.5924  19.6672
    19.7928  19.8745  19.9298  19.9775  20.1913  20.4435  20.4748  20.6647
    20.6984  20.8112  20.8263  20.9276  21.1040  21.2121  21.2708  21.3406
    21.4664  21.4982  21.6170  21.6558  21.8481  21.8872  22.0500  22.3851
    22.4657  22.5284  22.6436  22.7268  22.9869  23.0930  23.2259  23.2797
    23.4387  23.4991  23.5647  23.6302  23.7208  23.9095  24.0444  25.5131
    25.6073  26.1121  26.3682  27.2867  27.9453  28.0312  28.4648  30.3325
    30.8753  31.6780  32.6747  33.2964  33.5191  33.7789  34.6896  34.8317
    35.2671  35.7353  36.2864  36.6486  36.7468  36.8961  37.0690  37.2702

          k = 0.2316-0.1474-0.1551 ( 22133 PWs)   bands (ev):

   -74.8557 -74.8322 -74.8171 -74.7936 -74.7873 -74.7812 -74.7772 -60.7018
   -60.6933 -54.8047 -54.7872 -43.2606 -43.2509 -43.2438 -43.2374 -43.2369
   -43.2330 -43.2299 -43.2295 -43.2276 -43.2263 -43.2198 -43.2161 -43.2149
   -43.2072 -43.2049 -43.2037 -43.2017 -43.2013 -43.2004 -43.1975 -43.1960
   -43.1954 -43.1935 -43.1933 -43.1924 -43.1907 -43.1858 -43.1823 -43.1819
   -43.1813 -43.1786 -43.1761 -43.1695 -43.1690 -43.1642 -43.1635 -43.1616
   -43.1608 -43.1602 -43.1593 -43.1587 -43.1578 -43.1567 -43.1556 -43.1554
   -43.1444 -43.1425 -43.1382 -43.1364 -29.1249 -29.0924 -29.0564 -29.0363
   -29.0135 -29.0058 -28.9835 -28.9684 -28.9510 -28.9384 -28.9166 -28.8923
   -28.8824 -28.8791 -28.8573 -28.8475 -28.8321 -28.8127 -28.8072 -28.7982
   -28.7806 -26.4556 -26.4355 -26.4249 -26.4149 -26.4047 -26.3501 -22.7592
   -22.7132 -22.6450 -22.6303 -22.6140 -22.5594  15.3782  17.2555  17.7348
    17.8284  17.9593  18.0831  18.1484  18.2211  18.3116  18.4326  18.4897
    18.5856  18.7745  19.0107  19.3447  19.3607  19.4789  19.6414  19.6732
    19.7248  19.7730  19.9959  20.0670  20.2807  20.3647  20.4488  20.4949
    20.6341  20.7072  20.7467  20.8446  20.9454  21.1107  21.2533  21.3311
    21.4666  21.6314  21.7367  21.8231  21.8977  21.9760  21.9999  22.1402
    22.3417  22.4354  22.7862  22.8705  23.0602  23.1266  23.1631  23.2877
    23.4212  23.5993  23.7794  23.8272  23.9176  23.9649  24.4619  24.7653
    25.6790  26.2052  26.5216  26.7392  26.8251  27.1779  28.6089  30.5081
    31.1066  31.6206  33.4807  33.6843  34.0339  34.3629  34.7981  35.4831
    35.6209  35.7418  36.2648  36.4030  36.8103  36.8612  37.1688  37.2724

          k = 0.4203 0.1408 0.0000 ( 22131 PWs)   bands (ev):

   -74.8555 -74.8311 -74.8182 -74.7936 -74.7873 -74.7807 -74.7780 -60.7018
   -60.6933 -54.8002 -54.7917 -43.2606 -43.2509 -43.2438 -43.2374 -43.2369
   -43.2330 -43.2299 -43.2295 -43.2276 -43.2263 -43.2198 -43.2161 -43.2149
   -43.2072 -43.2049 -43.2037 -43.2017 -43.2013 -43.2005 -43.1975 -43.1960
   -43.1954 -43.1935 -43.1933 -43.1924 -43.1907 -43.1858 -43.1823 -43.1818
   -43.1813 -43.1786 -43.1761 -43.1695 -43.1690 -43.1642 -43.1635 -43.1616
   -43.1608 -43.1602 -43.1593 -43.1587 -43.1578 -43.1567 -43.1556 -43.1554
   -43.1443 -43.1426 -43.1382 -43.1365 -29.1067 -29.0912 -29.0694 -29.0585
   -29.0331 -29.0218 -28.9700 -28.9497 -28.9294 -28.9136 -28.9088 -28.8988
   -28.8832 -28.8701 -28.8525 -28.8503 -28.8356 -28.8308 -28.8102 -28.7990
   -28.7928 -26.4549 -26.4375 -26.4253 -26.4143 -26.4040 -26.3509 -22.7554
   -22.7150 -22.6404 -22.6318 -22.6065 -22.5723  16.0479  16.9964  17.4981
    17.6863  17.8974  18.1008  18.2271  18.3022  18.3660  18.4239  18.4701
    18.5987  18.6641  18.7679  18.9563  19.0518  19.1667  19.3719  19.4653
    19.6434  19.7570  20.1750  20.2580  20.3895  20.4947  20.5789  20.6113
    20.7244  20.8133  20.8848  20.9624  20.9885  21.1820  21.2252  21.4722
    21.6412  21.6894  21.7852  21.9933  22.1443  22.2884  22.3861  22.5230
    22.5771  22.7807  22.8690  23.0075  23.0589  23.1561  23.2337  23.3753
    23.4271  23.4935  23.5856  23.6193  23.8147  23.8311  23.8526  24.4870
    24.8016  24.9255  25.5355  27.2143  27.6937  27.9895  28.9029  29.8498
    30.0296  30.5135  31.6134  32.0894  34.1517  35.3885  35.7478  36.2422
    37.1048  37.3580  37.5731  37.7138  37.7980  37.9175  38.1973  38.3151

          k = 0.4410 0.2005 0.1551 ( 22142 PWs)   bands (ev):

   -74.8555 -74.8311 -74.8182 -74.7940 -74.7871 -74.7806 -74.7781 -60.7018
   -60.6933 -54.8002 -54.7917 -43.2606 -43.2509 -43.2438 -43.2374 -43.2369
   -43.2330 -43.2299 -43.2295 -43.2276 -43.2263 -43.2198 -43.2161 -43.2149
   -43.2072 -43.2049 -43.2037 -43.2017 -43.2013 -43.2005 -43.1975 -43.1960
   -43.1954 -43.1935 -43.1933 -43.1924 -43.1907 -43.1858 -43.1823 -43.1818
   -43.1813 -43.1786 -43.1761 -43.1695 -43.1690 -43.1642 -43.1635 -43.1616
   -43.1608 -43.1602 -43.1593 -43.1587 -43.1578 -43.1567 -43.1556 -43.1554
   -43.1443 -43.1426 -43.1382 -43.1365 -29.1122 -29.0901 -29.0842 -29.0426
   -29.0271 -29.0112 -28.9709 -28.9520 -28.9315 -28.9257 -28.9103 -28.8972
   -28.8812 -28.8641 -28.8610 -28.8449 -28.8398 -28.8295 -28.8091 -28.7995
   -28.7911 -26.4551 -26.4372 -26.4255 -26.4142 -26.4040 -26.3508 -22.7554
   -22.7150 -22.6407 -22.6315 -22.6065 -22.5723  16.4220  16.9454  17.4058
    17.6319  17.8200  17.9489  18.1546  18.2331  18.3470  18.3691  18.4343
    18.6098  18.6563  18.7249  18.8592  19.0607  19.2509  19.2823  19.3877
    19.6625  19.9585  20.1569  20.3918  20.4461  20.5336  20.5496  20.6589
    20.8143  20.8584  21.0192  21.0727  21.2126  21.2862  21.3282  21.4057
    21.4913  21.6676  21.7409  21.8298  22.0389  22.0730  22.2564  22.4070
    22.4244  22.5606  22.6006  22.8529  22.9806  23.2560  23.3976  23.4184
    23.5509  23.6380  23.7116  23.7469  23.8188  23.8373  23.8945  23.9912
    25.1521  25.3311  26.3536  26.6852  27.1022  28.7228  29.2614  29.5750
    30.2473  30.4086  31.2586  33.3943  33.7793  34.5100  35.1523  35.7489
    36.5748  36.8064  36.8868  36.9608  37.5037  37.7020  37.7829  38.1205

          k = 0.4616 0.2602 0.3102 ( 22140 PWs)   bands (ev):

   -74.8554 -74.8312 -74.8181 -74.7943 -74.7869 -74.7806 -74.7780 -60.7018
   -60.6933 -54.8002 -54.7917 -43.2606 -43.2509 -43.2438 -43.2374 -43.2369
   -43.2330 -43.2299 -43.2295 -43.2276 -43.2263 -43.2198 -43.2161 -43.2149
   -43.2072 -43.2049 -43.2037 -43.2017 -43.2013 -43.2004 -43.1975 -43.1960
   -43.1954 -43.1935 -43.1933 -43.1924 -43.1907 -43.1858 -43.1823 -43.1818
   -43.1813 -43.1786 -43.1761 -43.1695 -43.1690 -43.1642 -43.1635 -43.1616
   -43.1608 -43.1602 -43.1593 -43.1587 -43.1578 -43.1567 -43.1556 -43.1554
   -43.1443 -43.1426 -43.1382 -43.1365 -29.1173 -29.1004 -29.0690 -29.0302
   -29.0204 -29.0000 -28.9743 -28.9631 -28.9451 -28.9357 -28.9177 -28.8963
   -28.8808 -28.8723 -28.8538 -28.8440 -28.8329 -28.8236 -28.8088 -28.7992
   -28.7905 -26.4555 -26.4367 -26.4259 -26.4142 -26.4040 -26.3505 -22.7555
   -22.7153 -22.6408 -22.6313 -22.6063 -22.5724  16.7752  16.9801  17.1575
    17.4630  17.8515  18.0204  18.1259  18.2040  18.2731  18.3710  18.4112
    18.4826  18.5466  18.8355  19.0581  19.0965  19.1533  19.3583  19.4029
    19.8483  20.0137  20.2466  20.3590  20.4092  20.4259  20.5985  20.6775
    20.7558  20.7914  20.8731  20.9952  21.0327  21.2127  21.2578  21.3260
    21.4469  21.5099  21.7561  22.0668  22.0899  22.1398  22.3082  22.3630
    22.6561  22.6934  22.7699  22.7963  23.0675  23.1484  23.4157  23.4358
    23.5017  23.5480  23.6073  23.7363  23.7859  23.8348  24.1311  24.3192
    24.6913  24.8530  25.5678  26.6062  27.7955  28.9493  29.7408  30.1719
    31.2652  31.3414  31.9351  32.4586  33.6663  34.0647  34.4820  34.5476
    35.7968  36.1666  36.4186  36.6548  37.0326  37.6342  37.8478  38.1320

          k = 0.3791 0.0215-0.3102 ( 22139 PWs)   bands (ev):

   -74.8555 -74.8312 -74.8180 -74.7941 -74.7870 -74.7807 -74.7779 -60.7018
   -60.6933 -54.8002 -54.7917 -43.2606 -43.2509 -43.2438 -43.2374 -43.2369
   -43.2330 -43.2299 -43.2295 -43.2276 -43.2263 -43.2198 -43.2161 -43.2149
   -43.2072 -43.2049 -43.2037 -43.2017 -43.2013 -43.2004 -43.1975 -43.1960
   -43.1954 -43.1935 -43.1933 -43.1924 -43.1907 -43.1858 -43.1823 -43.1818
   -43.1813 -43.1786 -43.1761 -43.1695 -43.1690 -43.1642 -43.1635 -43.1616
   -43.1608 -43.1602 -43.1593 -43.1587 -43.1578 -43.1567 -43.1556 -43.1554
   -43.1443 -43.1426 -43.1382 -43.1365 -29.1170 -29.0982 -29.0646 -29.0240
   -29.0224 -28.9993 -28.9804 -28.9705 -28.9528 -28.9317 -28.9243 -28.8935
   -28.8840 -28.8657 -28.8552 -28.8382 -28.8335 -28.8200 -28.8091 -28.7996
   -28.7918 -26.4555 -26.4367 -26.4259 -26.4142 -26.4040 -26.3504 -22.7555
   -22.7154 -22.6407 -22.6313 -22.6061 -22.5724  16.2854  17.1448  17.3858
    17.5955  17.8314  18.0464  18.1043  18.1396  18.3713  18.4345  18.4803
    18.5572  18.7224  18.8273  18.8865  19.0224  19.1808  19.6293  19.6885
    19.7974  20.0098  20.0817  20.1214  20.2673  20.3689  20.4213  20.5398
    20.7013  20.8125  20.8614  20.9217  20.9574  21.0224  21.1968  21.3510
    21.5358  21.6542  21.8389  22.0095  22.3769  22.4001  22.4962  22.5787
    22.6777  22.7412  22.7870  22.8327  22.9158  23.0129  23.2743  23.3610
    23.5944  23.6675  23.7118  23.7586  23.8136  23.8491  23.9445  24.1182
    24.5837  24.6472  25.5213  26.0179  28.0461  28.8456  30.0752  30.2679
    31.1856  31.5351  32.5161  33.2960  33.5455  34.0621  34.2093  34.5972
    35.2300  35.8708  36.4575  37.0382  37.1160  37.3687  37.8379  38.1159

          k = 0.3997 0.0812-0.1551 ( 22116 PWs)   bands (ev):

   -74.8555 -74.8311 -74.8181 -74.7937 -74.7872 -74.7808 -74.7780 -60.7018
   -60.6933 -54.8002 -54.7917 -43.2606 -43.2509 -43.2438 -43.2374 -43.2369
   -43.2330 -43.2299 -43.2295 -43.2276 -43.2263 -43.2198 -43.2161 -43.2149
   -43.2072 -43.2049 -43.2037 -43.2017 -43.2013 -43.2004 -43.1975 -43.1960
   -43.1954 -43.1935 -43.1933 -43.1924 -43.1907 -43.1858 -43.1823 -43.1818
   -43.1813 -43.1786 -43.1761 -43.1695 -43.1690 -43.1642 -43.1635 -43.1616
   -43.1608 -43.1602 -43.1593 -43.1587 -43.1578 -43.1567 -43.1556 -43.1554
   -43.1443 -43.1426 -43.1382 -43.1365 -29.1089 -29.0903 -29.0760 -29.0449
   -29.0219 -29.0096 -28.9833 -28.9571 -28.9428 -28.9235 -28.9183 -28.8941
   -28.8807 -28.8637 -28.8567 -28.8422 -28.8343 -28.8256 -28.8087 -28.7996
   -28.7931 -26.4552 -26.4372 -26.4255 -26.4143 -26.4040 -26.3507 -22.7554
   -22.7153 -22.6404 -22.6316 -22.6063 -22.5724  15.9911  17.1521  17.4615
    17.7358  17.8606  17.9087  18.1544  18.2607  18.3394  18.5230  18.5797
    18.7033  18.7728  18.8903  18.9138  19.1528  19.2522  19.3227  19.3786
    19.8145  19.9671  20.0732  20.0883  20.2657  20.3532  20.4043  20.4397
    20.5297  20.6446  20.8342  20.9014  20.9899  21.2561  21.6325  21.7484
    21.7859  21.8813  21.9541  22.0325  22.1114  22.1459  22.1892  22.3250
    22.4344  22.5259  22.7837  22.9754  23.0810  23.1220  23.2168  23.3386
    23.5102  23.6288  23.7058  23.7586  23.8251  23.8607  24.1189  24.4137
    24.6659  25.1964  25.5161  26.0978  26.5037  29.0841  29.7199  30.2136
    30.6160  30.9955  31.5840  33.6368  34.2206  34.6370  34.9751  35.5368
    35.8295  36.5286  36.9566  37.2055  37.3734  37.5244  37.6068  38.0015

          k = 0.4203 0.3131 0.0000 ( 22147 PWs)   bands (ev):

   -74.8555 -74.8311 -74.8182 -74.7935 -74.7873 -74.7814 -74.7774 -60.7018
   -60.6933 -54.8002 -54.7917 -43.2606 -43.2509 -43.2438 -43.2374 -43.2369
   -43.2330 -43.2299 -43.2295 -43.2276 -43.2263 -43.2198 -43.2161 -43.2149
   -43.2072 -43.2049 -43.2037 -43.2017 -43.2013 -43.2005 -43.1975 -43.1960
   -43.1954 -43.1935 -43.1933 -43.1924 -43.1907 -43.1858 -43.1823 -43.1818
   -43.1813 -43.1786 -43.1761 -43.1695 -43.1690 -43.1642 -43.1635 -43.1616
   -43.1608 -43.1602 -43.1593 -43.1587 -43.1578 -43.1567 -43.1556 -43.1554
   -43.1443 -43.1426 -43.1382 -43.1365 -29.1163 -29.0899 -29.0779 -29.0491
   -29.0250 -29.0116 -28.9677 -28.9462 -28.9346 -28.9191 -28.9114 -28.8978
   -28.8851 -28.8735 -28.8629 -28.8446 -28.8351 -28.8286 -28.8111 -28.8005
   -28.7871 -26.4551 -26.4372 -26.4256 -26.4144 -26.4038 -26.3507 -22.7555
   -22.7150 -22.6406 -22.6317 -22.6065 -22.5723  16.4834  16.8377  17.4318
    17.5165  17.7766  17.9527  18.0607  18.2357  18.2984  18.3197  18.4342
    18.7792  18.8250  18.8657  19.1439  19.2503  19.3554  19.4332  19.4895
    19.5633  19.6858  19.9022  19.9591  20.2864  20.4406  20.5727  20.6893
    20.7454  20.8326  20.8705  20.9538  21.1239  21.2582  21.3292  21.4506
    21.6156  21.7859  21.9372  22.0561  22.2087  22.2665  22.3536  22.4155
    22.5046  22.5843  22.8369  22.8704  23.0378  23.1399  23.2236  23.2961
    23.3584  23.5044  23.5798  23.6938  23.7572  23.8015  23.8666  23.8896
    24.8078  25.8018  26.4111  27.4302  27.7948  28.1046  28.2746  29.6109
    30.1913  30.6492  30.9479  33.5692  33.9582  34.3990  34.7841  36.2524
    36.6105  36.9411  37.3131  37.3545  37.6598  37.7821  38.1788  38.4380

          k = 0.4410 0.3728 0.1551 ( 22115 PWs)   bands (ev):

   -74.8554 -74.8312 -74.8181 -74.7939 -74.7870 -74.7813 -74.7774 -60.7018
   -60.6933 -54.8002 -54.7917 -43.2606 -43.2509 -43.2438 -43.2374 -43.2369
   -43.2330 -43.2299 -43.2295 -43.2276 -43.2263 -43.2198 -43.2161 -43.2149
   -43.2072 -43.2049 -43.2037 -43.2017 -43.2013 -43.2005 -43.1975 -43.1960
   -43.1954 -43.1935 -43.1933 -43.1924 -43.1907 -43.1858 -43.1823 -43.1818
   -43.1813 -43.1786 -43.1761 -43.1695 -43.1690 -43.1642 -43.1635 -43.1616
   -43.1608 -43.1602 -43.1593 -43.1587 -43.1578 -43.1567 -43.1556 -43.1554
   -43.1443 -43.1426 -43.1382 -43.1365 -29.1201 -29.0969 -29.0774 -29.0306
   -29.0186 -29.0059 -28.9669 -28.9507 -28.9473 -28.9325 -28.9181 -28.8950
   -28.8823 -28.8753 -28.8576 -28.8388 -28.8342 -28.8280 -28.8106 -28.8013
   -28.7874 -26.4555 -26.4367 -26.4260 -26.4144 -26.4038 -26.3504 -22.7555
   -22.7150 -22.6408 -22.6314 -22.6065 -22.5723  16.6758  16.9666  17.3100
    17.5329  17.7461  17.9015  18.0392  18.1039  18.1938  18.5197  18.5519
    18.6601  18.7751  18.8646  18.9237  19.1131  19.1415  19.2499  19.4549
    19.9626  19.9900  20.0224  20.0946  20.4183  20.4871  20.5426  20.6391
    20.6718  20.7868  20.8185  20.9217  21.0192  21.1357  21.5175  21.6336
    21.6628  21.6820  21.7813  22.0074  22.1731  22.2907  22.3418  22.4142
    22.4892  22.5189  22.6241  22.7948  22.9421  23.0646  23.2183  23.2744
    23.3898  23.4991  23.5370  23.5889  23.6875  23.7560  23.9195  24.0099
    25.9210  26.1031  26.3971  26.5335  27.5064  28.0207  29.1555  29.7721
    30.3092  30.7277  31.4913  33.2348  34.1149  34.4078  34.7260  35.2024
    35.8348  36.5497  36.6443  36.8026  37.3364  37.5519  37.6850  38.4736

          k = 0.4616 0.4324 0.3102 ( 22138 PWs)   bands (ev):

   -74.8554 -74.8312 -74.8180 -74.7942 -74.7868 -74.7814 -74.7773 -60.7018
   -60.6933 -54.8002 -54.7917 -43.2606 -43.2509 -43.2438 -43.2374 -43.2369
   -43.2330 -43.2299 -43.2295 -43.2276 -43.2263 -43.2198 -43.2161 -43.2149
   -43.2072 -43.2049 -43.2037 -43.2017 -43.2013 -43.2004 -43.1975 -43.1960
   -43.1954 -43.1935 -43.1933 -43.1924 -43.1907 -43.1858 -43.1823 -43.1818
   -43.1813 -43.1786 -43.1761 -43.1695 -43.1690 -43.1642 -43.1635 -43.1616
   -43.1608 -43.1602 -43.1593 -43.1587 -43.1578 -43.1567 -43.1556 -43.1554
   -43.1443 -43.1426 -43.1382 -43.1365 -29.1162 -29.0988 -29.0659 -29.0336
   -29.0150 -28.9982 -28.9710 -28.9677 -28.9567 -28.9352 -28.9240 -28.8935
   -28.8887 -28.8658 -28.8503 -28.8404 -28.8345 -28.8211 -28.8092 -28.8037
   -28.7861 -26.4556 -26.4367 -26.4259 -26.4144 -26.4038 -26.3504 -22.7556
   -22.7152 -22.6409 -22.6312 -22.6062 -22.5724  16.7645  16.9780  17.2424
    17.5671  17.7979  17.9059  18.0339  18.1363  18.2937  18.3702  18.4390
    18.6265  18.7115  18.7739  18.9920  19.0614  19.3937  19.4342  19.6664
    19.8183  19.9388  20.1227  20.1938  20.3379  20.3921  20.4583  20.5859
    20.6839  20.7092  20.7940  20.8553  20.8950  21.0632  21.2974  21.5480
    21.6550  21.7698  21.8767  21.9450  22.0702  22.1647  22.3128  22.4339
    22.6428  22.7565  22.8355  22.9708  23.0250  23.0752  23.1493  23.2835
    23.3348  23.5286  23.6326  23.7980  23.8294  23.8412  23.9708  24.0960
    24.3610  24.9492  26.1021  27.0655  28.0679  29.1902  29.9348  30.3562
    30.6415  31.4352  31.5894  33.0969  33.8032  34.1606  34.3945  34.8968
    35.4599  35.7887  36.0250  36.1943  36.4356  37.3680  37.5327  37.7558

          k = 0.3791 0.1938-0.3102 ( 22117 PWs)   bands (ev):

   -74.8555 -74.8311 -74.8181 -74.7941 -74.7869 -74.7815 -74.7772 -60.7018
   -60.6933 -54.8002 -54.7917 -43.2606 -43.2509 -43.2438 -43.2374 -43.2369
   -43.2330 -43.2299 -43.2295 -43.2276 -43.2263 -43.2198 -43.2161 -43.2149
   -43.2072 -43.2049 -43.2037 -43.2017 -43.2013 -43.2004 -43.1975 -43.1960
   -43.1954 -43.1935 -43.1933 -43.1924 -43.1907 -43.1858 -43.1823 -43.1818
   -43.1813 -43.1786 -43.1761 -43.1695 -43.1690 -43.1642 -43.1635 -43.1616
   -43.1608 -43.1602 -43.1593 -43.1587 -43.1578 -43.1567 -43.1556 -43.1554
   -43.1443 -43.1426 -43.1382 -43.1365 -29.1081 -29.0913 -29.0713 -29.0397
   -29.0204 -29.0041 -28.9869 -28.9640 -28.9452 -28.9305 -28.9191 -28.8938
   -28.8888 -28.8627 -28.8535 -28.8416 -28.8378 -28.8173 -28.8097 -28.8051
   -28.7846 -26.4552 -26.4372 -26.4255 -26.4145 -26.4037 -26.3506 -22.7556
   -22.7154 -22.6408 -22.6312 -22.6061 -22.5724  16.4927  17.0976  17.2806
    17.5823  17.7621  17.8853  18.0617  18.1747  18.2444  18.3590  18.6164
    18.7090  18.7858  18.8164  19.0372  19.1321  19.2562  19.3464  19.6654
    19.8914  20.0687  20.1943  20.2916  20.3206  20.4065  20.4974  20.5330
    20.6002  20.6379  20.7433  20.7707  20.9765  21.0255  21.1415  21.2506
    21.6203  21.7161  22.0072  22.0416  22.0825  22.2166  22.3408  22.3816
    22.4528  22.6974  22.8585  22.8961  23.0532  23.1919  23.2568  23.3841
    23.5914  23.6547  23.7345  23.7572  23.8202  23.8513  24.0629  24.1083
    24.4196  24.7992  25.3693  26.7686  27.3713  29.6090  30.0126  30.4316
    31.9317  32.2386  32.3086  32.8109  33.4216  33.5543  34.1670  34.8863
    35.0242  35.2987  35.9835  36.4598  36.7088  37.1694  37.8232  37.9168

          k = 0.3997 0.2535-0.1551 ( 22135 PWs)   bands (ev):

   -74.8555 -74.8311 -74.8182 -74.7937 -74.7872 -74.7815 -74.7773 -60.7018
   -60.6933 -54.8002 -54.7917 -43.2606 -43.2509 -43.2438 -43.2374 -43.2369
   -43.2330 -43.2299 -43.2295 -43.2276 -43.2263 -43.2198 -43.2161 -43.2149
   -43.2072 -43.2049 -43.2037 -43.2017 -43.2013 -43.2004 -43.1975 -43.1960
   -43.1954 -43.1935 -43.1933 -43.1924 -43.1907 -43.1858 -43.1823 -43.1818
   -43.1813 -43.1786 -43.1761 -43.1695 -43.1690 -43.1642 -43.1635 -43.1616
   -43.1608 -43.1602 -43.1593 -43.1587 -43.1578 -43.1567 -43.1556 -43.1554
   -43.1443 -43.1426 -43.1382 -43.1365 -29.1062 -29.0914 -29.0649 -29.0567
   -29.0338 -29.0151 -28.9711 -28.9526 -28.9325 -28.9247 -28.9115 -28.8950
   -28.8875 -28.8681 -28.8572 -28.8511 -28.8367 -28.8221 -28.8105 -28.8012
   -28.7856 -26.4549 -26.4374 -26.4253 -26.4145 -26.4038 -26.3509 -22.7555
   -22.7153 -22.6406 -22.6315 -22.6062 -22.5724  16.3313  16.9766  17.4993
    17.6151  17.7765  17.9404  18.0306  18.1734  18.2097  18.3502  18.4376
    18.7161  18.8209  18.9713  19.0743  19.1294  19.4538  19.5107  19.6530
    19.7179  19.8616  19.8879  20.0414  20.1732  20.3336  20.5057  20.5687
    20.6810  20.7681  20.8860  21.0286  21.0698  21.2770  21.3714  21.4993
    21.5177  21.7581  21.7756  21.9487  22.0912  22.1743  22.2329  22.3077
    22.4545  22.7853  22.8842  22.9495  23.0486  23.2405  23.2931  23.4245
    23.4884  23.5459  23.6800  23.7303  23.7829  23.8495  23.8829  24.0063
    24.9321  25.2338  26.0408  26.3804  26.6358  28.6957  29.8274  30.3670
    31.0383  31.7080  32.1676  32.2671  33.6331  34.0514  34.6267  35.4107
    36.1497  36.4769  36.6784  36.7515  37.0850  37.4516  37.7608  38.2975

          k = 0.4203 0.4854 0.0000 ( 22134 PWs)   bands (ev):

   -74.8555 -74.8312 -74.8181 -74.7936 -74.7873 -74.7815 -74.7774 -60.7018
   -60.6933 -54.8002 -54.7917 -43.2606 -43.2509 -43.2438 -43.2374 -43.2369
   -43.2330 -43.2299 -43.2295 -43.2276 -43.2263 -43.2198 -43.2161 -43.2149
   -43.2072 -43.2049 -43.2037 -43.2017 -43.2013 -43.2005 -43.1975 -43.1960
   -43.1954 -43.1935 -43.1933 -43.1924 -43.1907 -43.1858 -43.1823 -43.1818
   -43.1813 -43.1786 -43.1761 -43.1695 -43.1690 -43.1642 -43.1635 -43.1616
   -43.1608 -43.1602 -43.1593 -43.1587 -43.1578 -43.1567 -43.1556 -43.1554
   -43.1443 -43.1426 -43.1382 -43.1365 -29.1235 -29.0911 -29.0769 -29.0351
   -29.0121 -29.0067 -28.9660 -28.9500 -28.9418 -28.9314 -28.9199 -28.8950
   -28.8908 -28.8816 -28.8633 -28.8413 -28.8366 -28.8245 -28.8102 -28.7985
   -28.7793 -26.4557 -26.4369 -26.4259 -26.4145 -26.4037 -26.3501 -22.7555
   -22.7153 -22.6407 -22.6314 -22.6062 -22.5724  16.6167  17.0517  17.1967
    17.5161  17.7076  17.8129  18.0011  18.1674  18.2215  18.2833  18.4160
    18.8143  18.9095  19.0850  19.2349  19.4205  19.4805  19.5710  19.6161
    19.7118  19.7671  19.8561  19.9973  20.1785  20.3889  20.5141  20.6307
    20.6876  20.7271  20.8270  20.9414  21.0211  21.1417  21.2176  21.3173
    21.4221  21.4950  21.8471  21.8975  21.9962  22.0323  22.1658  22.2831
    22.5676  22.9070  22.9415  23.0252  23.2012  23.2479  23.3309  23.4150
    23.4396  23.4644  23.5754  23.6599  23.7698  23.8121  23.9423  24.1395
    25.6825  25.7579  26.5775  26.6543  27.2198  27.4169  27.7831  30.5309
    31.3886  31.8490  32.4127  32.8874  33.3052  34.2989  34.7006  35.3553
    35.9078  36.8387  36.9278  37.0089  37.2574  37.3800  37.6428  37.9637

          k = 0.4410 0.5451 0.1551 ( 22106 PWs)   bands (ev):

   -74.8555 -74.8312 -74.8181 -74.7939 -74.7870 -74.7815 -74.7773 -60.7018
   -60.6933 -54.8002 -54.7917 -43.2606 -43.2509 -43.2438 -43.2374 -43.2369
   -43.2330 -43.2299 -43.2295 -43.2276 -43.2263 -43.2198 -43.2161 -43.2149
   -43.2072 -43.2049 -43.2037 -43.2017 -43.2013 -43.2005 -43.1975 -43.1960
   -43.1954 -43.1935 -43.1933 -43.1924 -43.1907 -43.1858 -43.1823 -43.1818
   -43.1813 -43.1786 -43.1761 -43.1695 -43.1690 -43.1642 -43.1635 -43.1616
   -43.1608 -43.1602 -43.1593 -43.1587 -43.1578 -43.1567 -43.1556 -43.1554
   -43.1443 -43.1426 -43.1382 -43.1365 -29.1181 -29.0939 -29.0740 -29.0355
   -29.0098 -29.0005 -28.9704 -28.9635 -28.9470 -28.9338 -28.9209 -28.9000
   -28.8891 -28.8715 -28.8556 -28.8422 -28.8374 -28.8237 -28.8103 -28.7986
   -28.7796 -26.4558 -26.4369 -26.4259 -26.4146 -26.4037 -26.3500 -22.7556
   -22.7153 -22.6409 -22.6311 -22.6062 -22.5724  16.6063  16.9978  17.4080
    17.5598  17.8155  17.8338  17.9391  18.1111  18.2446  18.3399  18.4796
    18.5949  18.7757  18.8934  19.1481  19.3216  19.4193  19.5579  19.6644
    19.8002  20.0036  20.0779  20.2485  20.2946  20.3714  20.4148  20.5563
    20.6393  20.7250  20.7475  20.8953  20.9605  21.0338  21.1842  21.3116
    21.3621  21.7083  21.7480  21.8705  21.9624  21.9972  22.1172  22.3095
    22.6024  22.8068  22.9321  22.9861  23.0623  23.1023  23.2353  23.4285
    23.4963  23.5352  23.6559  23.7185  23.8172  23.9816  24.0718  24.2652
    24.7599  25.7115  26.2223  27.2962  27.3602  27.5952  28.8323  30.3379
    31.8578  32.1198  32.5504  32.8293  33.2416  33.8017  34.7242  35.1755
    35.4880  35.7791  36.0031  36.9465  37.1147  37.3438  37.4657  37.9721

          k = 0.4616 0.6047 0.3102 ( 22104 PWs)   bands (ev):

   -74.8555 -74.8311 -74.8180 -74.7943 -74.7868 -74.7816 -74.7772 -60.7018
   -60.6933 -54.8002 -54.7917 -43.2606 -43.2509 -43.2438 -43.2374 -43.2369
   -43.2330 -43.2299 -43.2295 -43.2276 -43.2263 -43.2198 -43.2161 -43.2149
   -43.2072 -43.2049 -43.2037 -43.2017 -43.2013 -43.2004 -43.1975 -43.1960
   -43.1954 -43.1935 -43.1933 -43.1924 -43.1907 -43.1858 -43.1823 -43.1818
   -43.1813 -43.1786 -43.1761 -43.1695 -43.1690 -43.1642 -43.1635 -43.1616
   -43.1608 -43.1602 -43.1593 -43.1587 -43.1578 -43.1567 -43.1556 -43.1554
   -43.1443 -43.1426 -43.1382 -43.1365 -29.1081 -29.0877 -29.0683 -29.0512
   -29.0130 -29.0088 -28.9752 -28.9594 -28.9476 -28.9347 -28.9169 -28.9016
   -28.8887 -28.8661 -28.8604 -28.8443 -28.8385 -28.8188 -28.8086 -28.7998
   -28.7777 -26.4554 -26.4373 -26.4254 -26.4147 -26.4037 -26.3503 -22.7557
   -22.7155 -22.6411 -22.6308 -22.6060 -22.5724  16.7382  17.0215  17.3590
    17.5313  17.7687  17.8722  17.9660  18.1402  18.2386  18.3027  18.4377
    18.6067  18.8050  19.0847  19.2258  19.3210  19.3522  19.3944  19.5413
    19.9756  20.0481  20.0881  20.1696  20.2080  20.3545  20.4433  20.4742
    20.5753  20.6341  20.7289  20.7889  20.8260  20.9463  21.3184  21.4000
    21.5317  21.6118  21.8113  21.9596  22.0112  22.1433  22.2202  22.2691
    22.4834  22.6210  22.8133  22.9947  23.0376  23.2269  23.2990  23.4395
    23.5098  23.6102  23.6518  23.7182  23.8069  24.0869  24.1346  24.2230
    24.7400  24.9181  25.1130  27.3408  28.7846  29.0679  29.5570  29.9821
    31.0726  32.0203  32.5360  32.8106  34.4987  34.6940  34.9280  35.0953
    35.3567  35.6705  35.7231  35.9965  36.0808  36.4716  36.6691  36.9078

          k = 0.3791 0.3661-0.3102 ( 22130 PWs)   bands (ev):

   -74.8555 -74.8310 -74.8181 -74.7942 -74.7869 -74.7815 -74.7772 -60.7018
   -60.6933 -54.8002 -54.7917 -43.2606 -43.2509 -43.2438 -43.2374 -43.2369
   -43.2330 -43.2299 -43.2295 -43.2276 -43.2263 -43.2198 -43.2161 -43.2149
   -43.2072 -43.2049 -43.2037 -43.2017 -43.2013 -43.2004 -43.1975 -43.1960
   -43.1954 -43.1935 -43.1933 -43.1924 -43.1907 -43.1858 -43.1823 -43.1818
   -43.1813 -43.1786 -43.1761 -43.1695 -43.1690 -43.1642 -43.1635 -43.1616
   -43.1608 -43.1602 -43.1593 -43.1587 -43.1578 -43.1567 -43.1556 -43.1554
   -43.1443 -43.1426 -43.1382 -43.1365 -29.1047 -29.0859 -29.0655 -29.0557
   -29.0305 -29.0095 -28.9689 -28.9558 -28.9375 -28.9336 -28.9123 -28.8989
   -28.8897 -28.8713 -28.8677 -28.8510 -28.8383 -28.8148 -28.8067 -28.8012
   -28.7761 -26.4551 -26.4376 -26.4252 -26.4147 -26.4037 -26.3505 -22.7557
   -22.7157 -22.6409 -22.6309 -22.6058 -22.5725  16.7375  17.0761  17.3595
    17.5083  17.7598  17.8062  17.9880  18.1157  18.2245  18.3143  18.4193
    18.6635  18.7855  18.9177  19.0930  19.2865  19.3610  19.4787  19.8304
    19.9835  20.0232  20.1303  20.2527  20.3271  20.3791  20.4414  20.5849
    20.6684  20.6906  20.7394  20.8001  20.8693  20.9535  21.0272  21.0975
    21.3900  21.6142  21.6668  21.7406  22.0872  22.1769  22.3362  22.3737
    22.4982  22.6194  22.6735  22.9218  23.1762  23.2630  23.3146  23.5142
    23.6650  23.6836  23.7457  23.7798  23.8090  24.0201  24.0841  24.1474
    24.6070  25.1952  25.9545  26.0379  27.9841  28.4569  30.2393  31.0978
    31.4933  32.2259  32.9081  33.2720  33.6775  34.1700  34.4107  34.6110
    34.9016  35.5802  35.8739  35.8954  36.6340  36.7796  36.8580  37.3697

          k = 0.3997 0.4257-0.1551 ( 22128 PWs)   bands (ev):

   -74.8555 -74.8311 -74.8181 -74.7938 -74.7872 -74.7815 -74.7773 -60.7018
   -60.6933 -54.8002 -54.7917 -43.2606 -43.2509 -43.2438 -43.2374 -43.2369
   -43.2330 -43.2299 -43.2295 -43.2276 -43.2263 -43.2198 -43.2161 -43.2149
   -43.2072 -43.2049 -43.2037 -43.2017 -43.2013 -43.2004 -43.1975 -43.1960
   -43.1954 -43.1935 -43.1933 -43.1924 -43.1907 -43.1858 -43.1823 -43.1818
   -43.1813 -43.1786 -43.1761 -43.1695 -43.1690 -43.1642 -43.1635 -43.1616
   -43.1608 -43.1602 -43.1593 -43.1587 -43.1578 -43.1567 -43.1556 -43.1554
   -43.1443 -43.1426 -43.1382 -43.1365 -29.1164 -29.0875 -29.0682 -29.0543
   -29.0203 -29.0084 -28.9628 -28.9503 -28.9396 -28.9300 -28.9112 -28.8945
   -28.8881 -28.8829 -28.8713 -28.8509 -28.8366 -28.8190 -28.8048 -28.8009
   -28.7777 -26.4553 -26.4373 -26.4255 -26.4146 -26.4037 -26.3504 -22.7556
   -22.7155 -22.6407 -22.6312 -22.6060 -22.5725  16.7266  16.9398  17.2887
    17.5304  17.6894  17.8365  17.9526  18.0631  18.2172  18.3442  18.5966
    18.6654  18.8612  19.1558  19.2531  19.3689  19.4648  19.5528  19.6401
    19.7493  19.9288  19.9820  19.9902  20.1505  20.2715  20.3651  20.4893
    20.6061  20.6676  20.7694  20.8305  20.9647  21.1882  21.3868  21.4038
    21.4413  21.5299  21.6310  21.8380  22.0140  22.1921  22.3451  22.3751
    22.5364  22.5788  23.0717  23.1094  23.1713  23.3639  23.3926  23.4734
    23.5493  23.5935  23.6999  23.7287  23.7917  23.8295  24.0768  24.1291
    24.2214  25.7939  25.9279  26.8142  27.3140  27.7446  29.3847  30.1695
    31.2397  32.4501  32.6558  33.0833  33.2993  34.0875  35.1181  35.2338
    35.8112  36.3509  36.5959  36.6366  36.8485  37.2227  37.4839  37.7251

          k = 0.4203-0.2037 0.0000 ( 22126 PWs)   bands (ev):

   -74.8555 -74.8313 -74.8181 -74.7936 -74.7873 -74.7808 -74.7779 -60.7018
   -60.6933 -54.8002 -54.7917 -43.2606 -43.2509 -43.2438 -43.2374 -43.2369
   -43.2330 -43.2299 -43.2295 -43.2276 -43.2263 -43.2198 -43.2161 -43.2149
   -43.2072 -43.2049 -43.2037 -43.2017 -43.2013 -43.2005 -43.1975 -43.1960
   -43.1954 -43.1935 -43.1933 -43.1924 -43.1907 -43.1858 -43.1823 -43.1818
   -43.1813 -43.1786 -43.1761 -43.1695 -43.1690 -43.1642 -43.1635 -43.1616
   -43.1608 -43.1602 -43.1593 -43.1587 -43.1578 -43.1567 -43.1556 -43.1554
   -43.1443 -43.1426 -43.1382 -43.1365 -29.1196 -29.0908 -29.0764 -29.0339
   -29.0113 -29.0009 -28.9766 -28.9567 -28.9440 -28.9314 -28.9220 -28.8969
   -28.8935 -28.8718 -28.8597 -28.8447 -28.8348 -28.8256 -28.8102 -28.7961
   -28.7783 -26.4558 -26.4370 -26.4258 -26.4145 -26.4038 -26.3499 -22.7555
   -22.7155 -22.6406 -22.6313 -22.6062 -22.5725  16.1529  17.3001  17.4576
    17.5268  17.7506  17.9418  17.9966  18.2177  18.2947  18.4422  18.5350
    18.5528  18.7063  18.7303  19.3112  19.4764  19.6058  19.6516  19.6982
    19.8276  19.9022  19.9958  20.1732  20.2861  20.3114  20.3297  20.4262
    20.5344  20.7289  20.8086  20.9864  21.0523  21.1336  21.1917  21.2459
    21.3229  21.4291  21.4892  21.5874  21.8856  21.9178  22.2383  22.3609
    22.7018  22.7911  22.9105  23.0408  23.0785  23.1582  23.3397  23.5653
    23.6453  23.7011  23.8459  23.9229  23.9979  24.0878  24.1730  24.5001
    25.0804  25.6004  25.9018  26.3128  26.6661  27.0548  28.0892  30.4196
    32.2784  32.4623  32.9626  33.7184  34.2314  34.6269  34.8538  35.0142
    35.4619  35.6243  35.8643  36.4930  36.6194  37.3397  37.4820  37.8665

          k = 0.4410-0.1441 0.1551 ( 22117 PWs)   bands (ev):

   -74.8555 -74.8311 -74.8181 -74.7940 -74.7870 -74.7809 -74.7778 -60.7018
   -60.6933 -54.8002 -54.7917 -43.2606 -43.2509 -43.2438 -43.2374 -43.2369
   -43.2330 -43.2299 -43.2295 -43.2276 -43.2263 -43.2198 -43.2161 -43.2149
   -43.2072 -43.2049 -43.2037 -43.2017 -43.2013 -43.2005 -43.1975 -43.1960
   -43.1954 -43.1935 -43.1933 -43.1924 -43.1907 -43.1858 -43.1823 -43.1818
   -43.1813 -43.1786 -43.1761 -43.1695 -43.1690 -43.1642 -43.1635 -43.1616
   -43.1608 -43.1602 -43.1593 -43.1587 -43.1578 -43.1567 -43.1556 -43.1554
   -43.1443 -43.1426 -43.1382 -43.1365 -29.1086 -29.0846 -29.0752 -29.0528
   -29.0184 -29.0089 -28.9754 -28.9515 -28.9386 -28.9310 -28.9149 -28.9020
   -28.8895 -28.8693 -28.8633 -28.8471 -28.8385 -28.8232 -28.8083 -28.7958
   -28.7784 -26.4555 -26.4375 -26.4253 -26.4146 -26.4038 -26.3501 -22.7556
   -22.7155 -22.6409 -22.6310 -22.6062 -22.5724  16.2749  17.2792  17.4651
    17.5883  17.6779  17.9375  17.9630  18.0779  18.1617  18.3448  18.5373
    18.6706  18.8234  19.1507  19.3267  19.4647  19.5112  19.6773  19.7302
    19.8218  19.9027  19.9438  19.9884  20.0982  20.2352  20.2803  20.4258
    20.4870  20.6881  20.7325  20.8251  20.9971  21.0765  21.1957  21.2445
    21.4294  21.5185  21.6577  21.7964  21.8887  22.0877  22.2965  22.4786
    22.6111  22.8980  22.9446  22.9784  23.1084  23.1700  23.3954  23.4334
    23.5968  23.6558  23.7484  23.8040  23.9079  24.1023  24.1720  24.3892
    25.2331  25.3979  25.5112  26.1463  26.4543  27.9794  29.7599  30.0024
    31.6936  32.1434  33.6594  34.0113  34.4817  34.6642  34.8241  35.1067
    35.3420  35.6345  35.7446  35.8620  36.0016  36.0969  36.4828  37.5648

          k = 0.4616-0.0844 0.3102 ( 22135 PWs)   bands (ev):

   -74.8555 -74.8310 -74.8181 -74.7944 -74.7868 -74.7809 -74.7777 -60.7018
   -60.6933 -54.8002 -54.7917 -43.2606 -43.2509 -43.2438 -43.2374 -43.2369
   -43.2330 -43.2299 -43.2295 -43.2276 -43.2263 -43.2198 -43.2161 -43.2149
   -43.2072 -43.2049 -43.2037 -43.2017 -43.2013 -43.2004 -43.1975 -43.1960
   -43.1954 -43.1935 -43.1933 -43.1924 -43.1907 -43.1858 -43.1823 -43.1818
   -43.1813 -43.1786 -43.1761 -43.1695 -43.1690 -43.1642 -43.1635 -43.1616
   -43.1608 -43.1602 -43.1593 -43.1587 -43.1578 -43.1567 -43.1556 -43.1554
   -43.1443 -43.1426 -43.1382 -43.1365 -29.1040 -29.0813 -29.0678 -29.0598
   -29.0310 -29.0126 -28.9633 -28.9533 -28.9403 -28.9299 -28.9140 -28.8993
   -28.8873 -28.8752 -28.8687 -28.8507 -28.8394 -28.8181 -28.8073 -28.7969
   -28.7752 -26.4552 -26.4377 -26.4251 -26.4147 -26.4038 -26.3504 -22.7557
   -22.7157 -22.6410 -22.6308 -22.6059 -22.5725  16.5966  17.3208  17.3496
    17.4584  17.7771  17.8186  18.0292  18.1017  18.2174  18.2796  18.3536
    18.4480  18.8518  18.9597  19.1357  19.4847  19.5489  19.6411  19.7020
    19.9428  20.0220  20.0991  20.1541  20.2542  20.3480  20.4424  20.4519
    20.5574  20.7131  20.7787  20.8476  20.9156  20.9623  21.1060  21.1440
    21.2241  21.4385  21.6717  21.7104  21.9709  22.2204  22.3170  22.3515
    22.4037  22.8528  22.8777  22.9440  23.0646  23.2719  23.3643  23.4733
    23.5753  23.6718  23.8170  23.8550  23.9437  24.1307  24.2692  24.3534
    24.3995  24.5702  26.4686  26.5612  27.4345  27.8672  29.6641  31.0831
    32.0345  32.6643  33.0920  33.4939  33.6791  34.2475  34.4029  34.7837
    35.2392  35.2867  35.6557  36.1001  36.1723  36.6229  36.8735  37.1215

          k = 0.3791-0.3230-0.3102 ( 22134 PWs)   bands (ev):

   -74.8555 -74.8311 -74.8180 -74.7943 -74.7870 -74.7808 -74.7777 -60.7018
   -60.6933 -54.8002 -54.7917 -43.2606 -43.2509 -43.2438 -43.2374 -43.2369
   -43.2330 -43.2299 -43.2295 -43.2276 -43.2263 -43.2198 -43.2161 -43.2149
   -43.2072 -43.2049 -43.2037 -43.2017 -43.2013 -43.2004 -43.1975 -43.1960
   -43.1954 -43.1935 -43.1933 -43.1924 -43.1907 -43.1858 -43.1823 -43.1818
   -43.1813 -43.1786 -43.1761 -43.1695 -43.1690 -43.1642 -43.1635 -43.1616
   -43.1608 -43.1602 -43.1593 -43.1587 -43.1578 -43.1567 -43.1556 -43.1554
   -43.1443 -43.1426 -43.1382 -43.1365 -29.1130 -29.0866 -29.0661 -29.0550
   -29.0153 -29.0065 -28.9672 -28.9535 -28.9461 -28.9312 -28.9151 -28.8967
   -28.8847 -28.8829 -28.8702 -28.8557 -28.8362 -28.8132 -28.8085 -28.7975
   -28.7742 -26.4553 -26.4374 -26.4254 -26.4146 -26.4038 -26.3502 -22.7557
   -22.7159 -22.6409 -22.6308 -22.6058 -22.5725  16.8258  16.9351  17.3163
    17.4841  17.7675  17.8464  17.9640  18.2702  18.3378  18.4125  18.4599
    18.5518  18.6027  18.8017  19.0958  19.3611  19.5690  19.6756  19.7811
    19.8807  19.9817  20.0501  20.0900  20.2435  20.3149  20.4597  20.5324
    20.5698  20.6901  20.7654  20.7843  20.9396  20.9925  21.1630  21.2464
    21.3836  21.4705  21.6751  21.8978  21.9887  22.1666  22.3292  22.4477
    22.5403  22.7386  22.8194  22.9090  23.0178  23.2174  23.3572  23.4264
    23.4483  23.4882  23.6296  23.6818  23.7798  23.9238  24.1425  24.3143
    24.8431  25.5340  26.1261  26.3213  27.8026  28.4359  29.3203  30.8617
    31.1694  31.6307  33.1412  33.8958  34.1298  34.4648  34.8989  35.1082
    35.5692  35.6969  35.9359  36.0321  36.3175  36.6168  37.2184  37.5085

          k = 0.3997-0.2634-0.1551 ( 22137 PWs)   bands (ev):

   -74.8555 -74.8312 -74.8181 -74.7938 -74.7872 -74.7808 -74.7779 -60.7018
   -60.6933 -54.8002 -54.7917 -43.2606 -43.2509 -43.2438 -43.2374 -43.2369
   -43.2330 -43.2299 -43.2295 -43.2276 -43.2263 -43.2198 -43.2161 -43.2149
   -43.2072 -43.2049 -43.2037 -43.2017 -43.2013 -43.2004 -43.1975 -43.1960
   -43.1954 -43.1935 -43.1933 -43.1924 -43.1907 -43.1858 -43.1823 -43.1818
   -43.1813 -43.1786 -43.1761 -43.1695 -43.1690 -43.1642 -43.1635 -43.1616
   -43.1608 -43.1602 -43.1593 -43.1587 -43.1578 -43.1567 -43.1556 -43.1554
   -43.1443 -43.1426 -43.1382 -43.1365 -29.1230 -29.0904 -29.0689 -29.0396
   -29.0098 -29.0003 -28.9703 -28.9583 -28.9415 -28.9354 -28.9206 -28.9014
   -28.8880 -28.8775 -28.8658 -28.8493 -28.8349 -28.8196 -28.8076 -28.7972
   -28.7763 -26.4558 -26.4370 -26.4258 -26.4145 -26.4038 -26.3499 -22.7556
   -22.7157 -22.6407 -22.6311 -22.6059 -22.5725  16.3414  17.1511  17.4181
    17.5964  17.7050  17.9136  18.0015  18.1576  18.2364  18.4097  18.6061
    18.6667  18.8729  18.8992  19.0559  19.3568  19.4471  19.5322  19.7337
    19.8303  19.9145  19.9952  20.1115  20.1725  20.3748  20.4305  20.5519
    20.6225  20.6614  20.7662  20.8093  20.8312  20.9798  21.1908  21.4496
    21.5178  21.5483  21.6686  21.7214  22.1488  22.1830  22.2643  22.4737
    22.6323  22.7041  22.8253  22.9061  23.0854  23.1299  23.2681  23.3298
    23.4223  23.5052  23.6112  23.6535  23.9436  24.0952  24.1878  24.7287
    25.0332  25.2023  25.7198  26.7769  27.3620  28.3348  28.6076  29.6816
    30.2821  32.7483  33.7168  34.0624  34.4375  34.8029  34.9339  35.1283
    35.4196  35.6309  36.1400  36.3345  36.7932  36.9956  37.6080  37.8139

          k = 0.4203-0.0314 0.0000 ( 22120 PWs)   bands (ev):

   -74.8555 -74.8312 -74.8181 -74.7936 -74.7873 -74.7801 -74.7786 -60.7018
   -60.6933 -54.8002 -54.7917 -43.2606 -43.2509 -43.2438 -43.2374 -43.2369
   -43.2330 -43.2299 -43.2295 -43.2276 -43.2263 -43.2198 -43.2161 -43.2149
   -43.2072 -43.2049 -43.2037 -43.2017 -43.2013 -43.2005 -43.1975 -43.1960
   -43.1954 -43.1935 -43.1933 -43.1924 -43.1907 -43.1858 -43.1823 -43.1818
   -43.1813 -43.1786 -43.1761 -43.1695 -43.1690 -43.1642 -43.1635 -43.1616
   -43.1608 -43.1602 -43.1593 -43.1587 -43.1578 -43.1567 -43.1556 -43.1554
   -43.1443 -43.1426 -43.1382 -43.1365 -29.1088 -29.0884 -29.0769 -29.0513
   -29.0219 -29.0110 -28.9788 -28.9502 -28.9366 -28.9248 -28.9153 -28.8983
   -28.8811 -28.8698 -28.8600 -28.8473 -28.8362 -28.8268 -28.8087 -28.7975
   -28.7859 -26.4553 -26.4374 -26.4254 -26.4143 -26.4040 -26.3504 -22.7554
   -22.7153 -22.6405 -22.6315 -22.6063 -22.5724  15.9079  17.3050  17.5105
    17.6598  17.8508  17.9168  18.1069  18.2600  18.3216  18.4282  18.4633
    18.7387  18.9811  19.0386  19.1223  19.2580  19.3087  19.4095  19.4825
    19.5720  19.8209  19.9334  19.9660  20.1567  20.2542  20.5062  20.5573
    20.5885  20.6831  20.7412  20.8480  20.9791  21.0636  21.3564  21.7417
    21.7733  21.8636  21.8971  21.9400  22.0390  22.0761  22.0978  22.5650
    22.6268  22.6534  22.7953  22.8286  23.0105  23.0848  23.5059  23.5414
    23.5881  23.6409  23.6668  23.7850  23.8121  23.9013  24.1620  24.3150
    25.0802  25.7604  25.8574  25.9560  26.5364  26.8278  29.2952  29.9718
    30.6186  32.0257  32.3919  34.1548  34.3550  34.8507  35.2426  35.3855
    35.8820  36.2654  36.6671  36.7804  37.3495  37.6541  37.8617  38.2880

          k = 0.4410 0.0282 0.1551 ( 22134 PWs)   bands (ev):

   -74.8555 -74.8311 -74.8182 -74.7940 -74.7870 -74.7801 -74.7785 -60.7018
   -60.6933 -54.8002 -54.7917 -43.2606 -43.2509 -43.2438 -43.2374 -43.2369
   -43.2330 -43.2299 -43.2295 -43.2276 -43.2263 -43.2198 -43.2161 -43.2149
   -43.2072 -43.2049 -43.2037 -43.2017 -43.2013 -43.2005 -43.1975 -43.1960
   -43.1954 -43.1935 -43.1933 -43.1924 -43.1907 -43.1858 -43.1823 -43.1818
   -43.1813 -43.1786 -43.1761 -43.1695 -43.1690 -43.1642 -43.1635 -43.1616
   -43.1608 -43.1602 -43.1593 -43.1587 -43.1578 -43.1567 -43.1556 -43.1554
   -43.1443 -43.1426 -43.1382 -43.1365 -29.1045 -29.0868 -29.0710 -29.0582
   -29.0335 -29.0189 -28.9684 -28.9499 -28.9300 -28.9193 -28.9137 -28.8987
   -28.8819 -28.8715 -28.8624 -28.8512 -28.8410 -28.8255 -28.8075 -28.7977
   -28.7838 -26.4550 -26.4376 -26.4251 -26.4144 -26.4040 -26.3506 -22.7555
   -22.7153 -22.6407 -22.6313 -22.6063 -22.5724  16.1828  17.2236  17.5531
    17.6240  17.7324  17.9628  18.1019  18.1427  18.1571  18.2613  18.4197
    18.7171  18.8731  18.9161  19.2239  19.3258  19.3609  19.4139  19.5326
    19.5729  19.8960  20.0411  20.1253  20.1542  20.2517  20.3568  20.5310
    20.6201  20.6763  20.9521  21.0195  21.1355  21.2599  21.5649  21.5777
    21.6111  21.7509  21.8728  21.9270  22.0014  22.0579  22.1313  22.2215
    22.2409  22.3232  22.8014  22.8924  22.9774  23.1427  23.3240  23.6430
    23.7530  23.7695  23.7996  23.8681  23.9408  24.0500  24.1571  24.5003
    24.9164  25.0191  25.4837  26.1858  27.0712  28.0752  28.4760  30.6848
    31.2597  32.1076  32.3422  33.0038  33.8940  34.4301  34.9804  35.4226
    35.9042  35.9854  36.4330  36.7090  37.2418  37.3909  37.4766  37.5350

          k = 0.4616 0.0879 0.3102 ( 22132 PWs)   bands (ev):

   -74.8555 -74.8311 -74.8181 -74.7944 -74.7869 -74.7801 -74.7784 -60.7018
   -60.6933 -54.8002 -54.7917 -43.2606 -43.2509 -43.2438 -43.2374 -43.2369
   -43.2330 -43.2299 -43.2295 -43.2276 -43.2263 -43.2198 -43.2161 -43.2149
   -43.2072 -43.2049 -43.2037 -43.2017 -43.2013 -43.2004 -43.1975 -43.1960
   -43.1954 -43.1935 -43.1933 -43.1924 -43.1907 -43.1858 -43.1823 -43.1818
   -43.1813 -43.1786 -43.1761 -43.1695 -43.1690 -43.1642 -43.1635 -43.1616
   -43.1608 -43.1602 -43.1593 -43.1587 -43.1578 -43.1567 -43.1556 -43.1554
   -43.1443 -43.1426 -43.1382 -43.1365 -29.1098 -29.0903 -29.0767 -29.0444
   -29.0228 -29.0062 -28.9739 -28.9550 -28.9394 -28.9296 -28.9139 -28.8969
   -28.8790 -28.8729 -28.8660 -28.8527 -28.8389 -28.8205 -28.8075 -28.7988
   -28.7805 -26.4552 -26.4373 -26.4254 -26.4143 -26.4040 -26.3505 -22.7556
   -22.7156 -22.6409 -22.6310 -22.6061 -22.5724  16.6854  17.0633  17.2975
    17.5241  17.7539  17.9654  17.9935  18.1116  18.2126  18.2824  18.3888
    18.5809  18.8080  18.8974  19.0575  19.2890  19.3416  19.4384  19.4999
    19.6105  20.0056  20.1402  20.1576  20.2968  20.4552  20.5248  20.6190
    20.7217  20.8652  20.9148  21.0332  21.2330  21.3199  21.3452  21.3910
    21.4903  21.6067  21.7206  21.8658  21.8859  22.0137  22.0930  22.1975
    22.3663  22.4188  22.6000  22.9691  23.0687  23.1818  23.2539  23.3961
    23.5705  23.6792  23.7398  23.9019  23.9665  24.0618  24.2104  24.2997
    24.8382  25.3456  25.6850  26.0127  27.5081  28.1440  30.0777  30.3305
    31.7927  32.2950  32.7039  33.0211  33.4551  33.9886  34.2133  34.4752
    34.9726  35.1467  35.9270  37.1149  37.4599  37.6211  38.2300  38.2749

          k = 0.3791-0.1508-0.3102 ( 22158 PWs)   bands (ev):

   -74.8554 -74.8312 -74.8180 -74.7943 -74.7870 -74.7800 -74.7785 -60.7018
   -60.6933 -54.8002 -54.7917 -43.2606 -43.2509 -43.2438 -43.2374 -43.2369
   -43.2330 -43.2299 -43.2295 -43.2276 -43.2263 -43.2198 -43.2161 -43.2149
   -43.2072 -43.2049 -43.2037 -43.2017 -43.2013 -43.2004 -43.1975 -43.1960
   -43.1954 -43.1935 -43.1933 -43.1924 -43.1907 -43.1858 -43.1823 -43.1818
   -43.1813 -43.1786 -43.1761 -43.1695 -43.1690 -43.1642 -43.1635 -43.1616
   -43.1608 -43.1602 -43.1593 -43.1587 -43.1578 -43.1567 -43.1556 -43.1554
   -43.1443 -43.1426 -43.1382 -43.1365 -29.1195 -29.0958 -29.0620 -29.0404
   -29.0126 -28.9942 -28.9804 -28.9643 -28.9446 -28.9363 -28.9197 -28.8993
   -28.8823 -28.8720 -28.8648 -28.8467 -28.8349 -28.8173 -28.8092 -28.7984
   -28.7809 -26.4556 -26.4369 -26.4258 -26.4143 -26.4040 -26.3502 -22.7556
   -22.7157 -22.6407 -22.6310 -22.6060 -22.5725  16.3975  17.0775  17.4570
    17.7261  17.8423  17.8857  17.9812  18.1467  18.2707  18.3658  18.4268
    18.5286  18.7087  19.0450  19.1618  19.2624  19.3359  19.4354  19.5619
    19.6304  19.8671  20.0437  20.0928  20.2934  20.3579  20.3708  20.4663
    20.5300  20.5969  20.7762  20.9545  21.1770  21.3723  21.4280  21.6901
    21.7293  21.7484  21.8730  22.0438  22.0668  22.1219  22.2763  22.3596
    22.5040  22.5540  22.6972  22.8075  22.9169  22.9891  23.1593  23.2980
    23.5300  23.5649  23.6428  23.7616  23.8265  23.9969  24.1261  24.3360
    24.3727  24.8316  26.4133  26.6375  27.8765  28.1385  29.5855  30.0675
    31.5561  31.7848  32.4047  32.6627  34.0494  34.3921  34.9182  35.2978
    35.8702  35.9226  36.1546  36.7150  36.8633  37.2288  37.4134  38.0161

          k = 0.3997-0.0911-0.1551 ( 22132 PWs)   bands (ev):

   -74.8555 -74.8312 -74.8181 -74.7938 -74.7873 -74.7800 -74.7786 -60.7018
   -60.6933 -54.8002 -54.7917 -43.2606 -43.2509 -43.2438 -43.2374 -43.2369
   -43.2330 -43.2299 -43.2295 -43.2276 -43.2263 -43.2198 -43.2161 -43.2149
   -43.2072 -43.2049 -43.2037 -43.2017 -43.2013 -43.2004 -43.1975 -43.1960
   -43.1954 -43.1935 -43.1933 -43.1924 -43.1907 -43.1858 -43.1823 -43.1818
   -43.1813 -43.1786 -43.1761 -43.1695 -43.1690 -43.1642 -43.1635 -43.1616
   -43.1608 -43.1602 -43.1593 -43.1587 -43.1578 -43.1567 -43.1556 -43.1554
   -43.1443 -43.1426 -43.1382 -43.1365 -29.1188 -29.0929 -29.0718 -29.0320
   -29.0148 -29.0000 -28.9800 -28.9601 -28.9504 -28.9332 -28.9217 -28.8952
   -28.8835 -28.8672 -28.8632 -28.8417 -28.8340 -28.8242 -28.8080 -28.7988
   -28.7838 -26.4557 -26.4369 -26.4258 -26.4142 -26.4040 -26.3501 -22.7555
   -22.7156 -22.6405 -22.6314 -22.6061 -22.5725  15.9726  17.2799  17.5904
    17.6762  17.8481  18.0034  18.0550  18.1000  18.3649  18.5018  18.5549
    18.6667  18.7839  18.9748  19.0314  19.2334  19.2982  19.3508  19.4096
    19.8192  19.9031  20.0035  20.0531  20.1394  20.2498  20.3181  20.4055
    20.5710  20.6963  20.7927  20.9095  21.1333  21.3127  21.3509  21.7158
    21.8220  21.9099  21.9251  22.0111  22.1276  22.1936  22.2806  22.3097
    22.3643  22.4601  22.7107  22.7641  23.0376  23.0715  23.2081  23.2687
    23.3463  23.5316  23.6349  23.7524  23.9100  24.0022  24.4981  24.6508
    24.7019  25.1623  25.8037  26.5532  27.4022  27.6300  28.0398  30.2005
    31.7450  31.8736  32.5624  33.3157  34.1573  34.7298  35.5707  35.7765
    36.0148  36.1614  36.3966  36.6381  37.2020  37.4522  37.6330  37.7854

     the Fermi energy is    23.7370 ev

!    total energy              =   -8170.22231162 Ry
     estimated scf accuracy    <          6.8E-10 Ry
     smearing contrib. (-TS)   =      -0.00669472 Ry
     internal energy E=F+TS    =   -8170.21561690 Ry

     The total energy is F=E-TS. E is the sum of the following terms:
     one-electron contribution =   -5531.70013377 Ry
     hartree contribution      =    2955.98156187 Ry
     xc contribution           =    -621.88595837 Ry
     ewald contribution        =   -4972.61108663 Ry

     convergence has been achieved in  24 iterations

     Forces acting on atoms (cartesian axes, Ry/au):

     atom    1 type  1   force =    -0.00076823   -0.00341479   -0.00113432
     atom    2 type  1   force =     0.00020803    0.00278960    0.00150039
     atom    3 type  2   force =     0.00058871   -0.00118520    0.00443263
     atom    4 type  2   force =    -0.00093514    0.00062499    0.00095504
     atom    5 type  2   force =    -0.00075138    0.00482453   -0.00410429
     atom    6 type  2   force =    -0.00002303   -0.00268257   -0.00295547
     atom    7 type  2   force =     0.00138957   -0.00043982   -0.00152942
     atom    8 type  2   force =     0.00028018    0.00157164    0.00243289
     atom    9 type  2   force =     0.00035323   -0.00043398    0.00010879
     atom   10 type  3   force =     0.00049584   -0.00228811    0.00035773
     atom   11 type  3   force =    -0.00083776    0.00063372   -0.00006396

     Total force =     0.011126     Total SCF correction =     0.000143


     Computing stress (Cartesian axis) and pressure

          total   stress  (Ry/bohr**3)                   (kbar)     P=       -6.40
  -0.00006856   0.00002391   0.00001884          -10.09        3.52        2.77
   0.00002391  -0.00000462   0.00004574            3.52       -0.68        6.73
   0.00001884   0.00004574  -0.00005731            2.77        6.73       -8.43


     Writing all to output data dir /home/tenant3/nexus-mat/dft/runs/dft-paper-worker-11/jobs/Pt-Pd-Rh-09_Pd2Pt7Rh2/tmp/Pt-Pd-Rh-09_Pd2Pt7Rh2.save/ :
     XML data file, charge density, pseudopotentials, collected wavefunctions

     init_run     :    736.67s CPU   2394.35s WALL (       1 calls)
     electrons    :  52757.52s CPU 128286.19s WALL (       1 calls)
     forces       :    567.88s CPU   1138.64s WALL (       1 calls)
     stress       :   1858.01s CPU   3729.47s WALL (       1 calls)

     Called by init_run:
     wfcinit      :    729.63s CPU   2364.82s WALL (       1 calls)
     potinit      :      0.59s CPU      2.36s WALL (       1 calls)
     hinit0       :      0.79s CPU      2.89s WALL (       1 calls)

     Called by electrons:
     c_bands      :  47453.61s CPU 115515.38s WALL (      25 calls)
     sum_band     :   5162.85s CPU  12366.29s WALL (      25 calls)
     v_of_rho     :     10.72s CPU     28.51s WALL (      25 calls)
     newd         :    133.42s CPU    394.61s WALL (      25 calls)
     mix_rho      :      1.74s CPU      4.08s WALL (      25 calls)

     Called by c_bands:
     init_us_2    :     95.00s CPU    227.47s WALL (    3975 calls)
     cegterg      :  46982.21s CPU 114382.88s WALL (    1875 calls)

     Called by *egterg:
     cdiaghg      :    380.65s CPU    924.59s WALL (    4517 calls)
     h_psi        :  19503.86s CPU  47447.36s WALL (    4667 calls)
     s_psi        :   5931.96s CPU  14371.79s WALL (    4667 calls)
     g_psi        :     16.42s CPU     39.91s WALL (    2717 calls)

     Called by h_psi:
     h_psi:calbec :   7153.09s CPU  17344.69s WALL (    4667 calls)
     vloc_psi     :   6394.85s CPU  15529.31s WALL (    4667 calls)
                                        0.00s GPU  (    4667 calls)
     add_vuspsi   :   5933.53s CPU  14379.67s WALL (    4667 calls)

     General routines
     calbec       :  12930.67s CPU  30199.48s WALL (    7817 calls)
     fft          :      7.87s CPU     18.69s WALL (     349 calls)
     ffts         :      0.37s CPU      0.86s WALL (      50 calls)
     fftw         :   7238.36s CPU  17503.46s WALL ( 1703256 calls)
     interpolate  :      0.85s CPU      2.08s WALL (      25 calls)


     PWSCF        :     15h32m CPU   1d13h39m WALL


   This run was terminated on:  14: 2:13  23Jul2026            

=------------------------------------------------------------------------------=
   JOB DONE.
=------------------------------------------------------------------------------=
