
     Program PWSCF v.7.5 starts on 21Jul2026 at  1:24:11 

     This program is part of the open-source Quantum ESPRESSO suite
     for quantum simulation of materials; please cite
         "P. Giannozzi et al., J. Phys.:Condens. Matter 21 395502 (2009);
         "P. Giannozzi et al., J. Phys.:Condens. Matter 29 465901 (2017);
         "P. Giannozzi et al., J. Chem. Phys. 152 154105 (2020);
          URL http://www.quantum-espresso.org", 
     in publications or presentations arising from this work. More details at
     http://www.quantum-espresso.org/quote

     Serial multi-threaded version, running on    1 processor cores
     4739 MiB available memory on the printing compute node when the environment starts

     Reading input from /home/tenant3/nexus-mat/dft/runs/dft-paper-worker-06/jobs/Pt-Pd-Rh-03_PdPt7Rh6/input.in

     Current dimensions of program PWSCF are:
     Max number of different atomic species (ntypx) = 10
     Max number of k-points (npk) =  40000
     Max angular momentum in pseudopotentials (lmaxx) =  4
     file Pt.pbe-spfn-rrkjus_psl.1.0.0.UPF: wavefunction(s)  5P renormalized


     G-vector sticks info
     --------------------
     sticks:   dense  smooth     PW     G-vecs:    dense   smooth      PW
     Sum        9163    4583   1245               625615   220929   31245

     Using Slab Decomposition



     bravais-lattice index     =            0
     lattice parameter (alat)  =      11.7013  a.u.
     unit-cell volume          =    1418.9408 (a.u.)^3
     number of atoms/cell      =           14
     number of atomic types    =            3
     number of electrons       =       344.00
     number of Kohn-Sham states=          206
     kinetic-energy cutoff     =     110.0000  Ry
     charge density cutoff     =     880.0000  Ry
     scf convergence threshold =      1.0E-08
     mixing beta               =       0.3000
     number of iterations used =            8  plain     mixing
     Exchange-correlation= PBE
                           (   1   4   3   4   0   0   0)

     celldm(1)=  11.701300  celldm(2)=   0.000000  celldm(3)=   0.000000
     celldm(4)=   0.000000  celldm(5)=   0.000000  celldm(6)=   0.000000

     crystal axes: (cart. coord. in units of alat)
               a(1) = (   0.953663   0.000000   0.300877 )  
               a(2) = (   0.219541   0.928594   0.300494 )  
               a(3) = (   0.000000   0.000000   1.000095 )  

     reciprocal axes: (cart. coord. in units 2 pi/alat)
               b(1) = (  1.048589 -0.247910  0.000000 )  
               b(2) = (  0.000000  1.076897  0.000000 )  
               b(3) = ( -0.315467 -0.248987  0.999905 )  


     PseudoPot. # 1 for Pd read from file:
     /home/tenant3/nexus-mat/dft/pseudo/SSSP_1.3.0_PBE_precision/Pd_ONCV_PBE-1.0.oncvpsp.upf
     MD5 check sum: eb77f42b51d86fb18e25f68156a31cf1
     Pseudo is Norm-conserving, Zval = 18.0
     Generated using ONCVPSP code by D. R. Hamann
     Using radial grid of 1410 points,  6 beta functions with: 
                l(1) =   0
                l(2) =   0
                l(3) =   1
                l(4) =   1
                l(5) =   2
                l(6) =   2

     PseudoPot. # 2 for Pt read from file:
     /home/tenant3/nexus-mat/dft/pseudo/SSSP_1.3.0_PBE_precision/Pt.pbe-spfn-rrkjus_psl.1.0.0.UPF
     MD5 check sum: ed006ba81d2b6b3b17616bb61ae12f04
     Pseudo is Ultrasoft + core correction, Zval = 32.0
     Generated using "atomic" code by A. Dal Corso  v.5.1
     Using radial grid of 1277 points,  8 beta functions with: 
                l(1) =   0
                l(2) =   0
                l(3) =   1
                l(4) =   1
                l(5) =   2
                l(6) =   2
                l(7) =   3
                l(8) =   3
     Q(r) pseudized with 0 coefficients 


     PseudoPot. # 3 for Rh read from file:
     /home/tenant3/nexus-mat/dft/pseudo/SSSP_1.3.0_PBE_precision/Rh_ONCV_PBE-1.0.oncvpsp.upf
     MD5 check sum: ba07c69523b14cacd10683cd4c4284c1
     Pseudo is Norm-conserving, Zval = 17.0
     Generated using ONCVPSP code by D. R. Hamann
     Using radial grid of 1442 points,  6 beta functions with: 
                l(1) =   0
                l(2) =   0
                l(3) =   1
                l(4) =   1
                l(5) =   2
                l(6) =   2

     atomic species   valence    mass     pseudopotential
     Pd               18.00   106.42000     Pd( 1.00)
     Pt               32.00   195.08400     Pt( 1.00)
     Rh               17.00   102.90549     Rh( 1.00)

     No symmetry found



   Cartesian axes

     site n.     atom                  positions (alat units)
         1        Pd     tau(   1) = (   0.8065386   0.8410090   0.5816979  )
         2        Pt     tau(   2) = (   0.2102706   0.0489736   0.4820666  )
         3        Pt     tau(   3) = (   0.2269266   0.7069301   1.0791289  )
         4        Pt     tau(   4) = (   0.4175714   0.6395043   0.4828426  )
         5        Pt     tau(   5) = (   0.9923028   0.7741830   0.9815714  )
         6        Pt     tau(   6) = (   0.4117511   0.3123607   1.1806409  )
         7        Pt     tau(   7) = (   0.6202355   0.9074593   1.1789827  )
         8        Pt     tau(   8) = (   0.9737636   0.1169378   0.3789116  )
         9        Rh     tau(   9) = (   0.6079642   0.5717746   0.8814685  )
        10        Rh     tau(  10) = (   0.6000558   0.2500431   0.5847827  )
        11        Rh     tau(  11) = (   0.9803477   0.4422281   0.6822750  )
        12        Rh     tau(  12) = (   0.7958065   0.5058997   1.2792588  )
        13        Rh     tau(  13) = (   0.7873133   0.1843608   0.9782572  )
        14        Rh     tau(  14) = (   0.2193556   0.3777071   0.7785951  )

     number of k points=    63  Marzari-Vanderbilt smearing, width (Ry)=  0.0200
                       cart. coord. in units 2pi/alat
        k(    1) = (   0.0000000   0.0000000   0.0000000), wk =   0.0160000
        k(    2) = (  -0.0630933  -0.0497974   0.1999809), wk =   0.0320000
        k(    3) = (  -0.1261867  -0.0995948   0.3999619), wk =   0.0320000
        k(    4) = (   0.0000000   0.2153795   0.0000000), wk =   0.0320000
        k(    5) = (  -0.0630933   0.1655821   0.1999809), wk =   0.0320000
        k(    6) = (  -0.1261867   0.1157847   0.3999619), wk =   0.0320000
        k(    7) = (   0.1261867   0.3149743  -0.3999619), wk =   0.0320000
        k(    8) = (   0.0630933   0.2651769  -0.1999809), wk =   0.0320000
        k(    9) = (   0.0000000   0.4307590   0.0000000), wk =   0.0320000
        k(   10) = (  -0.0630933   0.3809616   0.1999809), wk =   0.0320000
        k(   11) = (  -0.1261867   0.3311642   0.3999619), wk =   0.0320000
        k(   12) = (   0.1261867   0.5303538  -0.3999619), wk =   0.0320000
        k(   13) = (   0.0630933   0.4805564  -0.1999809), wk =   0.0320000
        k(   14) = (   0.2097177  -0.0495821   0.0000000), wk =   0.0320000
        k(   15) = (   0.1466244  -0.0993795   0.1999809), wk =   0.0320000
        k(   16) = (   0.0835311  -0.1491769   0.3999619), wk =   0.0320000
        k(   17) = (   0.3359044   0.0500128  -0.3999619), wk =   0.0320000
        k(   18) = (   0.2728111   0.0002153  -0.1999809), wk =   0.0320000
        k(   19) = (   0.2097177   0.1657974   0.0000000), wk =   0.0320000
        k(   20) = (   0.1466244   0.1160000   0.1999809), wk =   0.0320000
        k(   21) = (   0.0835311   0.0662026   0.3999619), wk =   0.0320000
        k(   22) = (   0.3359044   0.2653922  -0.3999619), wk =   0.0320000
        k(   23) = (   0.2728111   0.2155948  -0.1999809), wk =   0.0320000
        k(   24) = (   0.2097177   0.3811769   0.0000000), wk =   0.0320000
        k(   25) = (   0.1466244   0.3313795   0.1999809), wk =   0.0320000
        k(   26) = (   0.0835311   0.2815821   0.3999619), wk =   0.0320000
        k(   27) = (   0.3359044   0.4807717  -0.3999619), wk =   0.0320000
        k(   28) = (   0.2728111   0.4309743  -0.1999809), wk =   0.0320000
        k(   29) = (   0.2097177  -0.4803410   0.0000000), wk =   0.0320000
        k(   30) = (   0.1466244  -0.5301384   0.1999809), wk =   0.0320000
        k(   31) = (   0.0835311  -0.5799358   0.3999619), wk =   0.0320000
        k(   32) = (   0.3359044  -0.3807462  -0.3999619), wk =   0.0320000
        k(   33) = (   0.2728111  -0.4305436  -0.1999809), wk =   0.0320000
        k(   34) = (   0.2097177  -0.2649615   0.0000000), wk =   0.0320000
        k(   35) = (   0.1466244  -0.3147589   0.1999809), wk =   0.0320000
        k(   36) = (   0.0835311  -0.3645563   0.3999619), wk =   0.0320000
        k(   37) = (   0.3359044  -0.1653667  -0.3999619), wk =   0.0320000
        k(   38) = (   0.2728111  -0.2151641  -0.1999809), wk =   0.0320000
        k(   39) = (   0.4194355  -0.0991641   0.0000000), wk =   0.0320000
        k(   40) = (   0.3563421  -0.1489615   0.1999809), wk =   0.0320000
        k(   41) = (   0.2932488  -0.1987589   0.3999619), wk =   0.0320000
        k(   42) = (   0.5456221   0.0004307  -0.3999619), wk =   0.0320000
        k(   43) = (   0.4825288  -0.0493667  -0.1999809), wk =   0.0320000
        k(   44) = (   0.4194355   0.1162154   0.0000000), wk =   0.0320000
        k(   45) = (   0.3563421   0.0664180   0.1999809), wk =   0.0320000
        k(   46) = (   0.2932488   0.0166206   0.3999619), wk =   0.0320000
        k(   47) = (   0.5456221   0.2158102  -0.3999619), wk =   0.0320000
        k(   48) = (   0.4825288   0.1660128  -0.1999809), wk =   0.0320000
        k(   49) = (   0.4194355   0.3315949   0.0000000), wk =   0.0320000
        k(   50) = (   0.3563421   0.2817975   0.1999809), wk =   0.0320000
        k(   51) = (   0.2932488   0.2320001   0.3999619), wk =   0.0320000
        k(   52) = (   0.5456221   0.4311897  -0.3999619), wk =   0.0320000
        k(   53) = (   0.4825288   0.3813923  -0.1999809), wk =   0.0320000
        k(   54) = (   0.4194355  -0.5299231   0.0000000), wk =   0.0320000
        k(   55) = (   0.3563421  -0.5797205   0.1999809), wk =   0.0320000
        k(   56) = (   0.2932488  -0.6295179   0.3999619), wk =   0.0320000
        k(   57) = (   0.5456221  -0.4303283  -0.3999619), wk =   0.0320000
        k(   58) = (   0.4825288  -0.4801257  -0.1999809), wk =   0.0320000
        k(   59) = (   0.4194355  -0.3145436   0.0000000), wk =   0.0320000
        k(   60) = (   0.3563421  -0.3643410   0.1999809), wk =   0.0320000
        k(   61) = (   0.2932488  -0.4141384   0.3999619), wk =   0.0320000
        k(   62) = (   0.5456221  -0.2149488  -0.3999619), wk =   0.0320000
        k(   63) = (   0.4825288  -0.2647462  -0.1999809), wk =   0.0320000

     Dense  grid:   625615 G-vectors     FFT dimensions: ( 120, 120, 120)

     Smooth grid:   220929 G-vectors     FFT dimensions: (  80,  80,  80)

     Estimated max dynamical RAM per process >      11.42 GB

     Initial potential from superposition of free atoms

     starting charge     343.9961, renormalised to     344.0000
     Starting wfcs are  189 randomized atomic wfcs +   17 random wfcs

     total cpu time spent up to now is     6053.7 secs

     Self-consistent Calculation

     iteration #  1     ecut=   110.00 Ry     beta= 0.30
     Davidson diagonalization with overlap
     ethr =  1.00E-02,  avg # of iterations =  3.0

     total cpu time spent up to now is    28203.3 secs

     total energy              =   -8782.45903933 Ry
     estimated scf accuracy    <       5.46061320 Ry

     iteration #  2     ecut=   110.00 Ry     beta= 0.30
     Davidson diagonalization with overlap
     ethr =  1.59E-03,  avg # of iterations =  2.9

     total cpu time spent up to now is    48431.2 secs

     total energy              =   -8783.37176616 Ry
     estimated scf accuracy    <      22.83820168 Ry

     iteration #  3     ecut=   110.00 Ry     beta= 0.30
     Davidson diagonalization with overlap
     ethr =  1.59E-03,  avg # of iterations =  2.0

     total cpu time spent up to now is    65163.4 secs

     total energy              =   -8784.62810484 Ry
     estimated scf accuracy    <       2.46297947 Ry

     iteration #  4     ecut=   110.00 Ry     beta= 0.30
     Davidson diagonalization with overlap
     ethr =  7.16E-04,  avg # of iterations =  1.0

     total cpu time spent up to now is    74595.1 secs

     total energy              =   -8784.72821613 Ry
     estimated scf accuracy    <       0.49040040 Ry

     iteration #  5     ecut=   110.00 Ry     beta= 0.30
     Davidson diagonalization with overlap
     ethr =  1.43E-04,  avg # of iterations =  1.1

     total cpu time spent up to now is    84555.7 secs

     total energy              =   -8784.72255405 Ry
     estimated scf accuracy    <       0.13165231 Ry

     iteration #  6     ecut=   110.00 Ry     beta= 0.30
     Davidson diagonalization with overlap
     ethr =  3.83E-05,  avg # of iterations =  3.1

     total cpu time spent up to now is    94622.9 secs

     total energy              =   -8784.73262000 Ry
     estimated scf accuracy    <       0.01602367 Ry

     iteration #  7     ecut=   110.00 Ry     beta= 0.30
     Davidson diagonalization with overlap
     ethr =  4.66E-06,  avg # of iterations =  8.0

     total cpu time spent up to now is   105014.1 secs

     total energy              =   -8784.73031527 Ry
     estimated scf accuracy    <       0.03993900 Ry

     iteration #  8     ecut=   110.00 Ry     beta= 0.30
     Davidson diagonalization with overlap
     ethr =  4.66E-06,  avg # of iterations =  1.4

     total cpu time spent up to now is   114138.7 secs

     total energy              =   -8784.73262107 Ry
     estimated scf accuracy    <       0.00451041 Ry

     iteration #  9     ecut=   110.00 Ry     beta= 0.30
     Davidson diagonalization with overlap
     ethr =  1.31E-06,  avg # of iterations =  1.6

     total cpu time spent up to now is   123101.4 secs

     total energy              =   -8784.73282150 Ry
     estimated scf accuracy    <       0.00270912 Ry

     iteration # 10     ecut=   110.00 Ry     beta= 0.30
     Davidson diagonalization with overlap
     ethr =  7.88E-07,  avg # of iterations =  1.0

     total cpu time spent up to now is   130181.9 secs

     total energy              =   -8784.73291790 Ry
     estimated scf accuracy    <       0.00150860 Ry

     iteration # 11     ecut=   110.00 Ry     beta= 0.30
     Davidson diagonalization with overlap
     ethr =  4.39E-07,  avg # of iterations =  1.0

     total cpu time spent up to now is   137284.5 secs

     total energy              =   -8784.73305783 Ry
     estimated scf accuracy    <       0.00047189 Ry

     iteration # 12     ecut=   110.00 Ry     beta= 0.30
     Davidson diagonalization with overlap
     ethr =  1.37E-07,  avg # of iterations =  1.0

     total cpu time spent up to now is   144339.4 secs

     total energy              =   -8784.73308246 Ry
     estimated scf accuracy    <       0.00007995 Ry

     iteration # 13     ecut=   110.00 Ry     beta= 0.30
     Davidson diagonalization with overlap
     ethr =  2.32E-08,  avg # of iterations =  1.0

     total cpu time spent up to now is   151398.3 secs

     total energy              =   -8784.73308914 Ry
     estimated scf accuracy    <       0.00001518 Ry

     iteration # 14     ecut=   110.00 Ry     beta= 0.30
     Davidson diagonalization with overlap
     ethr =  4.41E-09,  avg # of iterations =  1.0

     total cpu time spent up to now is   158452.2 secs

     total energy              =   -8784.73308981 Ry
     estimated scf accuracy    <       0.00000981 Ry

     iteration # 15     ecut=   110.00 Ry     beta= 0.30
     Davidson diagonalization with overlap
     ethr =  2.85E-09,  avg # of iterations =  1.0

     total cpu time spent up to now is   165513.7 secs

     total energy              =   -8784.73309031 Ry
     estimated scf accuracy    <       0.00000907 Ry

     iteration # 16     ecut=   110.00 Ry     beta= 0.30
     Davidson diagonalization with overlap
     ethr =  2.64E-09,  avg # of iterations =  1.0

     total cpu time spent up to now is   172525.4 secs

     total energy              =   -8784.73309070 Ry
     estimated scf accuracy    <       0.00000245 Ry

     iteration # 17     ecut=   110.00 Ry     beta= 0.30
     Davidson diagonalization with overlap
     ethr =  7.13E-10,  avg # of iterations =  1.0

     total cpu time spent up to now is   178160.4 secs

     total energy              =   -8784.73309078 Ry
     estimated scf accuracy    <       0.00000380 Ry

     iteration # 18     ecut=   110.00 Ry     beta= 0.30
     Davidson diagonalization with overlap
     ethr =  7.13E-10,  avg # of iterations =  1.0

     total cpu time spent up to now is   183794.0 secs

     total energy              =   -8784.73309097 Ry
     estimated scf accuracy    <       0.00000144 Ry

     iteration # 19     ecut=   110.00 Ry     beta= 0.30
     Davidson diagonalization with overlap
     ethr =  4.17E-10,  avg # of iterations =  1.0

     total cpu time spent up to now is   189424.3 secs

     total energy              =   -8784.73309104 Ry
     estimated scf accuracy    <       0.00000029 Ry

     iteration # 20     ecut=   110.00 Ry     beta= 0.30
     Davidson diagonalization with overlap
     ethr =  8.54E-11,  avg # of iterations =  1.0

     total cpu time spent up to now is   195061.1 secs

     total energy              =   -8784.73309107 Ry
     estimated scf accuracy    <       0.00000013 Ry

     iteration # 21     ecut=   110.00 Ry     beta= 0.30
     Davidson diagonalization with overlap
     ethr =  3.64E-11,  avg # of iterations =  1.0

     total cpu time spent up to now is   200695.8 secs

     total energy              =   -8784.73309107 Ry
     estimated scf accuracy    <       0.00000008 Ry

     iteration # 22     ecut=   110.00 Ry     beta= 0.30
     Davidson diagonalization with overlap
     ethr =  2.25E-11,  avg # of iterations =  1.0

     total cpu time spent up to now is   206340.7 secs

     total energy              =   -8784.73309107 Ry
     estimated scf accuracy    <       0.00000002 Ry

     iteration # 23     ecut=   110.00 Ry     beta= 0.30
     Davidson diagonalization with overlap
     ethr =  6.08E-12,  avg # of iterations =  1.0

     total cpu time spent up to now is   211992.7 secs

     total energy              =   -8784.73309108 Ry
     estimated scf accuracy    <       0.00000002 Ry

     iteration # 24     ecut=   110.00 Ry     beta= 0.30
     Davidson diagonalization with overlap
     ethr =  6.08E-12,  avg # of iterations =  1.0

     total cpu time spent up to now is   217668.7 secs

     End of self-consistent calculation

          k = 0.0000 0.0000 0.0000 ( 27657 PWs)   bands (ev):

   -75.0378 -75.0314 -75.0199 -75.0173 -75.0086 -75.0047 -74.9961 -60.8932
   -55.0028 -54.9643 -54.9600 -54.9575 -54.9565 -54.9486 -43.4464 -43.4393
   -43.4391 -43.4294 -43.4280 -43.4280 -43.4271 -43.4236 -43.4191 -43.4168
   -43.4164 -43.4150 -43.4141 -43.4135 -43.4134 -43.4124 -43.4117 -43.4114
   -43.4111 -43.4099 -43.4051 -43.4048 -43.4041 -43.4036 -43.4033 -43.4032
   -43.4017 -43.3992 -43.3989 -43.3985 -43.3981 -43.3971 -43.3960 -43.3934
   -43.3929 -43.3925 -43.3920 -43.3908 -43.3873 -43.3873 -43.3864 -43.3861
   -43.3837 -43.3823 -43.3821 -43.3811 -43.3753 -43.3745 -43.3710 -29.3008
   -29.2726 -29.2578 -29.2313 -29.2047 -29.1920 -29.1847 -29.1678 -29.1628
   -29.1375 -29.1196 -29.1149 -29.1048 -29.0871 -29.0741 -29.0591 -29.0542
   -29.0521 -29.0234 -29.0186 -29.0111 -26.6220 -26.6046 -26.6034 -23.0244
   -23.0083 -22.9753 -22.9343 -22.9150 -22.8865 -22.8515 -22.8365 -22.8055
   -22.7819 -22.7800 -22.7765 -22.7484 -22.7368 -22.7279 -22.7183 -22.6961
   -22.6726  14.6433  17.1343  17.7896  17.8394  17.8659  18.0213  18.1589
    18.2970  18.3852  18.5364  18.5522  18.5871  18.5891  18.6333  18.6698
    18.7478  18.7666  18.8108  18.9027  18.9595  19.1372  19.1611  19.3488
    19.3702  19.4266  19.4677  19.8833  20.1231  20.1462  20.1677  20.2011
    20.2173  20.3289  20.3748  20.4125  20.4463  20.4819  20.6104  20.6347
    20.6791  20.7325  20.7837  20.8328  21.6692  21.7172  21.7682  21.8003
    21.8371  21.8664  22.1411  22.2204  22.2898  22.3206  22.3656  22.3734
    22.4438  22.4641  23.1855  23.2119  23.2263  23.2748  23.2777  23.3281
    23.4302  23.5029  23.5473  23.5619  23.5999  23.6247  23.8332  23.8728
    23.8963  24.5537  24.6348  24.7041  24.7250  24.7542  24.8577  27.2432
    27.4039  27.5583  27.6493  27.6915  27.7882  30.0875  31.5876  31.9673
    32.0539  32.1951  32.3755  32.5457  35.8357  36.0638  36.1345  36.2442
    36.3447  36.4619  37.2819  37.3397  37.4949  37.5467

          k =-0.0631-0.0498 0.2000 ( 27677 PWs)   bands (ev):

   -75.0375 -75.0314 -75.0202 -75.0173 -75.0093 -75.0042 -74.9960 -60.8932
   -55.0012 -54.9695 -54.9601 -54.9568 -54.9556 -54.9465 -43.4464 -43.4393
   -43.4391 -43.4294 -43.4280 -43.4280 -43.4271 -43.4236 -43.4191 -43.4168
   -43.4164 -43.4150 -43.4141 -43.4135 -43.4134 -43.4124 -43.4117 -43.4114
   -43.4111 -43.4099 -43.4051 -43.4048 -43.4041 -43.4036 -43.4033 -43.4032
   -43.4017 -43.3992 -43.3989 -43.3985 -43.3981 -43.3971 -43.3960 -43.3934
   -43.3929 -43.3925 -43.3920 -43.3908 -43.3873 -43.3873 -43.3864 -43.3861
   -43.3837 -43.3823 -43.3821 -43.3811 -43.3753 -43.3745 -43.3710 -29.2974
   -29.2720 -29.2579 -29.2365 -29.2127 -29.1983 -29.1786 -29.1662 -29.1575
   -29.1347 -29.1219 -29.1144 -29.0984 -29.0859 -29.0735 -29.0611 -29.0584
   -29.0451 -29.0263 -29.0216 -29.0125 -26.6220 -26.6046 -26.6033 -23.0245
   -23.0087 -22.9734 -22.9326 -22.9096 -22.8924 -22.8535 -22.8375 -22.8115
   -22.7897 -22.7781 -22.7622 -22.7479 -22.7366 -22.7270 -22.7176 -22.6973
   -22.6758  14.8755  17.2746  17.3911  17.6818  17.7781  18.0043  18.0899
    18.1827  18.2080  18.3479  18.4229  18.4436  18.5101  18.5618  18.6244
    18.6813  18.9221  18.9761  19.0583  19.1529  19.2239  19.3111  19.3857
    19.4428  19.4903  19.5466  19.7444  19.9717  20.1157  20.1760  20.2753
    20.3312  20.3896  20.4687  20.5292  20.5773  20.6119  20.6486  20.6856
    20.7732  20.8510  21.0445  21.2567  21.3877  21.5054  21.6202  21.7273
    21.7879  21.8402  22.0159  22.1692  22.2259  22.2486  22.3888  22.4753
    22.5395  22.6291  22.7650  22.7701  22.9466  23.1029  23.1772  23.2285
    23.3847  23.4486  23.4934  23.6167  23.6941  23.7398  23.7601  23.8012
    23.8311  23.9305  24.3473  25.1355  25.2481  25.6967  26.1308  26.3358
    26.6272  27.0875  28.1815  28.7306  29.0894  30.0039  30.1608  30.9385
    31.7858  32.7017  33.6720  34.1674  34.4576  34.5609  35.0445  35.3754
    35.7181  36.2026  36.9504  37.3099  37.4240  37.6973

          k =-0.1262-0.0996 0.4000 ( 27630 PWs)   bands (ev):

   -75.0369 -75.0316 -75.0207 -75.0173 -75.0102 -75.0035 -74.9957 -60.8932
   -54.9978 -54.9764 -54.9601 -54.9567 -54.9549 -54.9437 -43.4464 -43.4393
   -43.4391 -43.4294 -43.4280 -43.4280 -43.4271 -43.4236 -43.4191 -43.4168
   -43.4164 -43.4150 -43.4141 -43.4135 -43.4134 -43.4124 -43.4117 -43.4114
   -43.4111 -43.4099 -43.4051 -43.4048 -43.4041 -43.4036 -43.4033 -43.4032
   -43.4017 -43.3992 -43.3989 -43.3985 -43.3981 -43.3971 -43.3960 -43.3934
   -43.3929 -43.3925 -43.3920 -43.3908 -43.3873 -43.3873 -43.3864 -43.3861
   -43.3837 -43.3823 -43.3821 -43.3811 -43.3753 -43.3745 -43.3710 -29.2889
   -29.2743 -29.2583 -29.2441 -29.2172 -29.2042 -29.1870 -29.1577 -29.1522
   -29.1313 -29.1204 -29.1063 -29.0940 -29.0850 -29.0760 -29.0677 -29.0545
   -29.0340 -29.0329 -29.0274 -29.0176 -26.6220 -26.6046 -26.6033 -23.0248
   -23.0103 -22.9621 -22.9404 -22.9067 -22.8878 -22.8616 -22.8428 -22.8146
   -22.7885 -22.7737 -22.7656 -22.7401 -22.7352 -22.7273 -22.7153 -22.6953
   -22.6839  15.5249  16.5007  17.4885  17.6289  17.7671  17.9205  17.9631
    18.0630  18.0914  18.2121  18.2363  18.2573  18.3536  18.4772  18.5303
    18.5662  18.6851  18.8112  18.9085  19.1582  19.3900  19.4856  19.5806
    19.7542  19.8528  19.8663  19.9544  19.9920  20.1526  20.2611  20.4484
    20.5448  20.6418  20.6802  20.7417  20.8536  20.8677  20.9003  20.9441
    20.9856  21.0519  21.1357  21.1673  21.2304  21.3016  21.3272  21.3979
    21.4423  21.5834  21.7299  21.7780  21.9642  22.0709  22.2318  22.3736
    22.5766  22.6308  22.8307  22.8506  22.8937  22.9935  23.0371  23.1159
    23.1637  23.3278  23.4286  23.4886  23.5446  23.5884  23.9026  23.9230
    23.9874  24.1555  24.6862  24.8185  25.4491  26.1302  26.2934  26.6005
    26.7324  27.5757  27.9283  28.9808  30.3235  30.5852  30.6845  31.4351
    31.6572  32.2688  32.5593  33.0384  33.2425  33.6755  34.2103  34.3979
    35.1369  36.4127  36.5490  37.1534  37.3718  37.6145

          k = 0.0000 0.2154 0.0000 ( 27667 PWs)   bands (ev):

   -75.0374 -75.0318 -75.0204 -75.0169 -75.0085 -75.0047 -74.9961 -60.8932
   -55.0028 -54.9643 -54.9600 -54.9575 -54.9565 -54.9486 -43.4464 -43.4393
   -43.4391 -43.4294 -43.4280 -43.4280 -43.4271 -43.4236 -43.4191 -43.4168
   -43.4164 -43.4150 -43.4141 -43.4135 -43.4134 -43.4124 -43.4117 -43.4114
   -43.4111 -43.4099 -43.4051 -43.4048 -43.4041 -43.4036 -43.4033 -43.4032
   -43.4017 -43.3992 -43.3989 -43.3985 -43.3981 -43.3971 -43.3960 -43.3934
   -43.3929 -43.3925 -43.3920 -43.3908 -43.3873 -43.3873 -43.3864 -43.3861
   -43.3837 -43.3823 -43.3821 -43.3811 -43.3753 -43.3745 -43.3710 -29.2967
   -29.2730 -29.2600 -29.2329 -29.2069 -29.1981 -29.1790 -29.1699 -29.1568
   -29.1367 -29.1223 -29.1149 -29.1044 -29.0874 -29.0760 -29.0606 -29.0526
   -29.0468 -29.0239 -29.0192 -29.0128 -26.6220 -26.6046 -26.6033 -23.0242
   -23.0086 -22.9751 -22.9338 -22.9150 -22.8866 -22.8510 -22.8361 -22.8057
   -22.7819 -22.7800 -22.7766 -22.7482 -22.7366 -22.7285 -22.7188 -22.6962
   -22.6728  14.8678  17.2461  17.4837  17.6833  17.8319  17.9516  18.0858
    18.1164  18.2649  18.3296  18.3833  18.4841  18.5120  18.5754  18.6068
    18.6705  18.8540  18.9483  19.1172  19.1966  19.2507  19.2831  19.3330
    19.4331  19.4764  19.5215  19.7792  20.0183  20.1786  20.2294  20.2901
    20.3521  20.3734  20.4052  20.5130  20.5457  20.5758  20.6396  20.6911
    20.7921  20.8180  21.0383  21.2834  21.4030  21.4437  21.6893  21.7457
    21.7576  21.8301  22.0623  22.1327  22.2213  22.2629  22.3572  22.4699
    22.5777  22.6280  22.7398  22.7458  22.9502  23.1105  23.1886  23.2276
    23.3295  23.5104  23.5499  23.6101  23.6753  23.7545  23.7662  23.7979
    23.8312  23.8581  24.3660  25.1315  25.2574  25.6828  26.1699  26.3314
    26.6423  27.0373  28.1891  28.7336  29.1644  29.7867  30.3025  31.1101
    31.7123  32.5474  33.8458  34.0948  34.2943  34.6522  35.1146  35.3609
    35.7880  36.0863  36.9765  37.2909  37.3669  37.7170

          k =-0.0631 0.1656 0.2000 ( 27658 PWs)   bands (ev):

   -75.0371 -75.0318 -75.0207 -75.0169 -75.0093 -75.0041 -74.9960 -60.8932
   -55.0012 -54.9695 -54.9601 -54.9568 -54.9556 -54.9465 -43.4464 -43.4393
   -43.4391 -43.4294 -43.4280 -43.4280 -43.4271 -43.4236 -43.4191 -43.4168
   -43.4164 -43.4150 -43.4141 -43.4135 -43.4134 -43.4124 -43.4117 -43.4114
   -43.4111 -43.4099 -43.4051 -43.4048 -43.4041 -43.4036 -43.4033 -43.4032
   -43.4017 -43.3992 -43.3989 -43.3985 -43.3981 -43.3971 -43.3960 -43.3934
   -43.3929 -43.3925 -43.3920 -43.3908 -43.3873 -43.3873 -43.3864 -43.3861
   -43.3837 -43.3823 -43.3821 -43.3811 -43.3753 -43.3745 -43.3710 -29.2881
   -29.2745 -29.2584 -29.2460 -29.2097 -29.1914 -29.1836 -29.1709 -29.1541
   -29.1328 -29.1229 -29.1180 -29.0994 -29.0842 -29.0786 -29.0633 -29.0523
   -29.0421 -29.0286 -29.0182 -29.0139 -26.6220 -26.6046 -26.6033 -23.0244
   -23.0092 -22.9733 -22.9321 -22.9099 -22.8923 -22.8536 -22.8371 -22.8121
   -22.7896 -22.7781 -22.7619 -22.7476 -22.7365 -22.7275 -22.7179 -22.6971
   -22.6759  14.9952  17.2502  17.4750  17.5952  17.6516  17.8332  17.9549
    18.0377  18.1521  18.3373  18.3641  18.5637  18.5939  18.7117  18.8450
    18.8657  18.9309  19.0040  19.0292  19.1068  19.1719  19.2451  19.4103
    19.4521  19.6369  19.7380  19.8621  19.9751  20.0149  20.0657  20.1482
    20.1771  20.2568  20.3471  20.4485  20.5391  20.5706  20.6406  20.7321
    20.8303  20.8647  21.0038  21.3370  21.4406  21.5670  21.7321  21.8163
    21.8644  21.9066  21.9505  22.1286  22.2027  22.2932  22.3499  22.3575
    22.4181  22.5074  22.5701  22.8436  22.8634  22.9978  23.1617  23.2200
    23.3366  23.6382  23.6688  23.7251  23.7809  23.8190  23.8826  23.9648
    24.0105  24.0217  24.2733  24.7116  25.1664  25.3039  26.2169  26.4299
    26.5532  27.1002  28.1641  28.4595  29.7555  30.4547  30.8033  31.3516
    32.1239  32.5533  32.9643  33.8836  34.4584  34.6759  34.8802  35.2892
    35.8294  36.2556  36.3331  36.3767  36.8797  37.2000

          k =-0.1262 0.1158 0.4000 ( 27656 PWs)   bands (ev):

   -75.0367 -75.0317 -75.0213 -75.0170 -75.0102 -75.0034 -74.9957 -60.8932
   -54.9978 -54.9763 -54.9601 -54.9567 -54.9549 -54.9437 -43.4464 -43.4393
   -43.4391 -43.4294 -43.4280 -43.4280 -43.4271 -43.4236 -43.4191 -43.4168
   -43.4164 -43.4150 -43.4141 -43.4135 -43.4134 -43.4124 -43.4117 -43.4114
   -43.4111 -43.4099 -43.4051 -43.4048 -43.4041 -43.4036 -43.4033 -43.4032
   -43.4017 -43.3992 -43.3989 -43.3985 -43.3981 -43.3971 -43.3960 -43.3934
   -43.3929 -43.3925 -43.3920 -43.3908 -43.3873 -43.3873 -43.3864 -43.3861
   -43.3837 -43.3823 -43.3821 -43.3811 -43.3753 -43.3745 -43.3710 -29.2889
   -29.2710 -29.2558 -29.2495 -29.2094 -29.2024 -29.1874 -29.1614 -29.1574
   -29.1338 -29.1217 -29.1036 -29.0939 -29.0920 -29.0789 -29.0597 -29.0541
   -29.0439 -29.0303 -29.0213 -29.0144 -26.6220 -26.6046 -26.6033 -23.0248
   -23.0107 -22.9620 -22.9400 -22.9068 -22.8878 -22.8621 -22.8426 -22.8148
   -22.7885 -22.7736 -22.7655 -22.7400 -22.7352 -22.7271 -22.7153 -22.6953
   -22.6840  15.5509  16.7595  17.3911  17.5364  17.6171  17.6769  17.8634
    17.9612  18.0506  18.1417  18.2725  18.3077  18.4623  18.6796  18.7317
    18.7637  18.9257  19.0688  19.2076  19.2811  19.3370  19.4597  19.5170
    19.6093  19.6549  19.8186  19.8552  19.9633  20.0416  20.0887  20.1694
    20.3364  20.3933  20.5099  20.5694  20.6640  20.7881  20.8271  20.8866
    20.9303  21.0130  21.1525  21.1952  21.2490  21.3190  21.4157  21.5614
    21.7016  21.8611  21.9166  21.9761  22.0603  22.1068  22.1965  22.3076
    22.3952  22.4883  22.5897  22.6198  22.9239  23.1049  23.2023  23.2235
    23.4560  23.5678  23.6379  23.7098  23.7635  23.8122  23.8447  23.8743
    23.9822  24.1956  24.3473  24.4385  25.3256  25.7165  26.2621  26.5405
    27.1688  27.4302  28.0464  29.5759  29.9120  30.3500  30.5745  31.6328
    32.1885  32.4747  32.6073  33.2723  34.0181  34.1493  34.4802  35.1372
    35.1618  35.3533  35.5239  35.7398  36.3164  36.9946

          k = 0.1262 0.3150-0.4000 ( 27649 PWs)   bands (ev):

   -75.0366 -75.0317 -75.0214 -75.0170 -75.0102 -75.0034 -74.9957 -60.8932
   -54.9978 -54.9764 -54.9601 -54.9567 -54.9549 -54.9437 -43.4464 -43.4393
   -43.4391 -43.4294 -43.4280 -43.4280 -43.4271 -43.4236 -43.4191 -43.4168
   -43.4164 -43.4150 -43.4141 -43.4135 -43.4134 -43.4124 -43.4117 -43.4114
   -43.4111 -43.4099 -43.4051 -43.4048 -43.4041 -43.4036 -43.4033 -43.4032
   -43.4017 -43.3992 -43.3989 -43.3985 -43.3981 -43.3971 -43.3960 -43.3934
   -43.3929 -43.3925 -43.3920 -43.3908 -43.3873 -43.3873 -43.3864 -43.3861
   -43.3837 -43.3823 -43.3821 -43.3811 -43.3753 -43.3745 -43.3710 -29.2970
   -29.2668 -29.2602 -29.2333 -29.2185 -29.2025 -29.1875 -29.1647 -29.1516
   -29.1348 -29.1157 -29.1100 -29.0960 -29.0886 -29.0770 -29.0634 -29.0524
   -29.0401 -29.0332 -29.0255 -29.0121 -26.6220 -26.6046 -26.6033 -23.0247
   -23.0103 -22.9622 -22.9403 -22.9067 -22.8876 -22.8616 -22.8427 -22.8147
   -22.7887 -22.7735 -22.7659 -22.7402 -22.7352 -22.7276 -22.7153 -22.6952
   -22.6838  15.8567  16.4388  17.3604  17.5772  17.6520  17.6881  17.9012
    18.0277  18.0884  18.1484  18.2118  18.3138  18.3637  18.4793  18.5597
    18.6550  18.6965  18.8563  19.1130  19.3044  19.3892  19.4736  19.5932
    19.6362  19.7917  19.8542  19.9010  20.0654  20.1378  20.2400  20.3102
    20.4424  20.5423  20.6475  20.7475  20.7767  20.8008  20.8522  20.8888
    20.9941  21.1010  21.1621  21.2387  21.3024  21.3378  21.4072  21.4652
    21.5392  21.6287  21.7228  21.8006  21.9585  22.1085  22.2742  22.3687
    22.4116  22.4511  22.5705  22.6828  22.8552  23.0345  23.1009  23.2474
    23.2860  23.4840  23.5075  23.6635  23.7326  23.7935  23.8055  23.8537
    23.9398  24.2054  24.4489  24.6658  25.6942  25.7798  25.8945  26.8925
    27.5965  28.1378  28.3607  28.6907  30.1178  30.3339  30.6998  31.0772
    31.4651  31.8888  32.3889  32.8952  33.2653  34.1498  34.8398  35.2300
    35.4442  35.9449  36.3066  36.3587  36.4592  36.8515

          k = 0.0631 0.2652-0.2000 ( 27670 PWs)   bands (ev):

   -75.0371 -75.0318 -75.0208 -75.0170 -75.0093 -75.0041 -74.9959 -60.8932
   -55.0012 -54.9695 -54.9601 -54.9568 -54.9556 -54.9465 -43.4464 -43.4393
   -43.4391 -43.4294 -43.4280 -43.4280 -43.4271 -43.4236 -43.4191 -43.4168
   -43.4164 -43.4150 -43.4141 -43.4135 -43.4134 -43.4124 -43.4117 -43.4114
   -43.4111 -43.4099 -43.4051 -43.4048 -43.4041 -43.4036 -43.4033 -43.4032
   -43.4017 -43.3992 -43.3989 -43.3985 -43.3981 -43.3971 -43.3960 -43.3934
   -43.3929 -43.3925 -43.3920 -43.3908 -43.3873 -43.3873 -43.3864 -43.3861
   -43.3837 -43.3823 -43.3821 -43.3811 -43.3753 -43.3745 -43.3710 -29.3004
   -29.2695 -29.2608 -29.2268 -29.2157 -29.1986 -29.1767 -29.1714 -29.1577
   -29.1376 -29.1211 -29.1110 -29.0979 -29.0859 -29.0756 -29.0633 -29.0559
   -29.0432 -29.0278 -29.0234 -29.0105 -26.6220 -26.6046 -26.6033 -23.0243
   -23.0085 -22.9735 -22.9323 -22.9094 -22.8926 -22.8528 -22.8372 -22.8118
   -22.7898 -22.7779 -22.7622 -22.7484 -22.7366 -22.7274 -22.7180 -22.6973
   -22.6758  15.1838  17.1528  17.4360  17.5759  17.6827  17.8700  17.9223
    18.0728  18.2107  18.2418  18.2601  18.3351  18.4443  18.5870  18.6289
    18.6900  18.7739  18.8427  18.9612  19.1360  19.2293  19.3768  19.4616
    19.5767  19.6476  19.8323  19.9076  19.9443  20.1395  20.1697  20.2557
    20.4117  20.4750  20.5597  20.5966  20.6966  20.7766  20.8358  20.8959
    21.0131  21.1133  21.1939  21.2205  21.3011  21.3635  21.4213  21.5148
    21.7427  21.7704  21.9647  22.0197  22.1099  22.1441  22.2045  22.3574
    22.3977  22.4501  22.6223  22.8110  22.8785  22.9256  23.0368  23.1856
    23.3269  23.4577  23.5355  23.6220  23.6673  23.7455  23.7849  23.8217
    23.8328  23.9869  24.3385  25.0815  25.7316  26.0964  26.4442  27.1582
    27.3381  27.4557  27.6232  27.8799  29.5372  29.8154  30.5106  30.8974
    31.2575  32.2321  33.1343  33.4034  34.1988  34.9625  35.3708  35.6921
    35.9901  36.2204  36.4557  36.7127  36.8610  37.0407

          k = 0.0000 0.4308 0.0000 ( 27634 PWs)   bands (ev):

   -75.0363 -75.0327 -75.0211 -75.0166 -75.0085 -75.0047 -74.9959 -60.8932
   -55.0028 -54.9643 -54.9600 -54.9575 -54.9565 -54.9486 -43.4464 -43.4393
   -43.4391 -43.4294 -43.4280 -43.4280 -43.4271 -43.4236 -43.4191 -43.4168
   -43.4164 -43.4150 -43.4141 -43.4135 -43.4134 -43.4125 -43.4117 -43.4114
   -43.4111 -43.4099 -43.4051 -43.4048 -43.4041 -43.4036 -43.4033 -43.4032
   -43.4017 -43.3992 -43.3989 -43.3985 -43.3981 -43.3971 -43.3960 -43.3934
   -43.3929 -43.3925 -43.3920 -43.3908 -43.3873 -43.3873 -43.3864 -43.3861
   -43.3837 -43.3823 -43.3821 -43.3811 -43.3753 -43.3745 -43.3710 -29.2888
   -29.2739 -29.2614 -29.2396 -29.2120 -29.2029 -29.1747 -29.1667 -29.1491
   -29.1368 -29.1270 -29.1147 -29.1024 -29.0928 -29.0774 -29.0608 -29.0488
   -29.0384 -29.0260 -29.0200 -29.0166 -26.6220 -26.6046 -26.6033 -23.0240
   -23.0089 -22.9749 -22.9331 -22.9150 -22.8868 -22.8503 -22.8357 -22.8060
   -22.7821 -22.7800 -22.7766 -22.7479 -22.7363 -22.7296 -22.7195 -22.6964
   -22.6730  15.4608  16.6206  17.5856  17.6777  17.7754  17.8464  17.9121
    17.9982  18.0923  18.1682  18.2251  18.3089  18.3835  18.4554  18.4705
    18.5723  18.6913  18.8235  18.9292  19.1838  19.3154  19.4628  19.4756
    19.7034  19.9589  19.9700  20.0053  20.0466  20.1786  20.2265  20.4648
    20.5863  20.6197  20.6470  20.7013  20.7384  20.8466  20.8782  20.9726
    21.0139  21.0877  21.1414  21.2192  21.2331  21.2885  21.3254  21.3821
    21.3905  21.6174  21.6656  21.7850  22.0194  22.1090  22.2026  22.4067
    22.4863  22.6303  22.7897  22.8687  22.9362  22.9842  23.0265  23.1072
    23.2319  23.3091  23.4056  23.4912  23.5396  23.5916  23.9041  23.9741
    24.0204  24.0654  24.6722  24.8207  25.4561  26.0972  26.3304  26.6084
    26.7682  27.5808  27.9355  28.9467  30.4295  30.5116  30.8179  31.4876
    31.7672  32.0624  32.4354  32.8872  33.4275  33.7250  34.0681  34.4799
    35.0946  36.4269  36.5502  37.1958  37.2838  37.6212

          k =-0.0631 0.3810 0.2000 ( 27648 PWs)   bands (ev):

   -75.0363 -75.0324 -75.0214 -75.0166 -75.0093 -75.0040 -74.9959 -60.8932
   -55.0012 -54.9695 -54.9601 -54.9568 -54.9556 -54.9465 -43.4464 -43.4393
   -43.4391 -43.4294 -43.4280 -43.4280 -43.4271 -43.4236 -43.4191 -43.4168
   -43.4164 -43.4150 -43.4141 -43.4135 -43.4134 -43.4125 -43.4117 -43.4114
   -43.4111 -43.4099 -43.4051 -43.4048 -43.4041 -43.4036 -43.4033 -43.4032
   -43.4017 -43.3992 -43.3989 -43.3985 -43.3981 -43.3971 -43.3960 -43.3934
   -43.3929 -43.3925 -43.3920 -43.3908 -43.3873 -43.3873 -43.3864 -43.3861
   -43.3837 -43.3823 -43.3821 -43.3811 -43.3753 -43.3745 -43.3710 -29.2887
   -29.2688 -29.2613 -29.2459 -29.2090 -29.1966 -29.1764 -29.1731 -29.1555
   -29.1355 -29.1224 -29.1188 -29.0996 -29.0851 -29.0788 -29.0654 -29.0491
   -29.0383 -29.0305 -29.0201 -29.0119 -26.6220 -26.6046 -26.6033 -23.0242
   -23.0094 -22.9733 -22.9315 -22.9098 -22.8924 -22.8529 -22.8367 -22.8128
   -22.7896 -22.7778 -22.7618 -22.7479 -22.7365 -22.7282 -22.7184 -22.6971
   -22.6759  15.5011  16.8744  17.4084  17.4809  17.5304  17.8083  17.8616
    18.0015  18.0749  18.2531  18.3278  18.3936  18.5262  18.5547  18.6331
    18.7766  18.9365  18.9651  19.0220  19.1100  19.1970  19.3013  19.3698
    19.5384  19.9070  20.0127  20.0400  20.0898  20.1353  20.1964  20.2630
    20.3685  20.3881  20.4565  20.5570  20.5989  20.6721  20.7643  20.7728
    20.8822  20.9502  21.0030  21.0606  21.1157  21.4033  21.6114  21.7408
    21.7792  21.8444  21.9014  21.9633  22.0727  22.1496  22.2622  22.3697
    22.4353  22.5709  22.6393  22.6930  22.7864  23.0754  23.1063  23.4631
    23.5437  23.5981  23.6365  23.6890  23.7891  23.8342  23.8690  23.9007
    24.0620  24.1528  24.1921  24.6984  24.9878  25.0794  25.3078  27.0321
    27.8412  28.0786  28.4598  28.9832  29.8246  30.2572  30.7911  31.3598
    32.0045  32.4459  32.6543  32.9454  33.1437  34.0965  34.4059  35.3326
    35.7865  36.0105  36.3854  36.4903  36.8389  36.9565

          k =-0.1262 0.3312 0.4000 ( 27652 PWs)   bands (ev):

   -75.0362 -75.0319 -75.0222 -75.0166 -75.0102 -75.0032 -74.9957 -60.8932
   -54.9978 -54.9763 -54.9601 -54.9567 -54.9549 -54.9437 -43.4464 -43.4393
   -43.4391 -43.4294 -43.4280 -43.4280 -43.4271 -43.4236 -43.4191 -43.4168
   -43.4164 -43.4150 -43.4141 -43.4135 -43.4134 -43.4124 -43.4117 -43.4114
   -43.4111 -43.4099 -43.4051 -43.4048 -43.4041 -43.4036 -43.4033 -43.4032
   -43.4017 -43.3992 -43.3989 -43.3985 -43.3981 -43.3971 -43.3960 -43.3934
   -43.3929 -43.3925 -43.3920 -43.3908 -43.3873 -43.3873 -43.3864 -43.3861
   -43.3837 -43.3823 -43.3821 -43.3811 -43.3753 -43.3745 -43.3710 -29.2961
   -29.2653 -29.2558 -29.2393 -29.2053 -29.1962 -29.1896 -29.1718 -29.1645
   -29.1335 -29.1225 -29.1054 -29.0962 -29.0916 -29.0815 -29.0610 -29.0519
   -29.0436 -29.0286 -29.0249 -29.0061 -26.6220 -26.6046 -26.6033 -23.0247
   -23.0109 -22.9620 -22.9397 -22.9068 -22.8877 -22.8625 -22.8424 -22.8151
   -22.7887 -22.7734 -22.7657 -22.7401 -22.7352 -22.7273 -22.7151 -22.6952
   -22.6839  15.9266  16.9376  17.0402  17.2855  17.4166  17.6821  17.8058
    17.9377  18.1112  18.2767  18.3216  18.3497  18.5628  18.6867  18.8101
    18.9028  18.9384  18.9690  19.1399  19.1814  19.3153  19.3538  19.4557
    19.5100  19.7479  19.8845  19.9342  20.0331  20.0730  20.2286  20.2555
    20.3190  20.3678  20.4301  20.4682  20.5582  20.6189  20.6278  20.6894
    20.7542  20.8754  21.0122  21.0364  21.1168  21.2413  21.3566  21.6722
    21.7236  21.8852  21.9823  22.0991  22.1719  22.2716  22.3102  22.3553
    22.4700  22.6405  22.8173  22.9567  22.9702  23.2416  23.3778  23.3956
    23.4192  23.5544  23.6293  23.7578  23.7994  23.8541  23.8711  23.8896
    23.9254  24.0277  24.2272  24.4733  24.7168  24.8388  25.9719  27.3742
    27.8358  28.2865  28.9160  29.2715  29.6158  30.0097  30.7376  31.3604
    31.9089  32.3635  32.5530  33.2404  33.8856  34.2317  34.4520  34.7953
    35.3313  35.9210  35.9611  36.2305  36.4147  36.5926

          k = 0.1262 0.5304-0.4000 ( 27662 PWs)   bands (ev):

   -75.0361 -75.0319 -75.0222 -75.0166 -75.0102 -75.0032 -74.9957 -60.8932
   -54.9978 -54.9764 -54.9601 -54.9567 -54.9549 -54.9437 -43.4464 -43.4393
   -43.4391 -43.4294 -43.4280 -43.4280 -43.4271 -43.4236 -43.4191 -43.4168
   -43.4164 -43.4150 -43.4141 -43.4135 -43.4134 -43.4124 -43.4117 -43.4114
   -43.4111 -43.4099 -43.4051 -43.4048 -43.4041 -43.4036 -43.4033 -43.4032
   -43.4017 -43.3992 -43.3989 -43.3985 -43.3981 -43.3971 -43.3960 -43.3934
   -43.3929 -43.3925 -43.3920 -43.3908 -43.3873 -43.3873 -43.3864 -43.3861
   -43.3837 -43.3823 -43.3821 -43.3811 -43.3753 -43.3745 -43.3710 -29.2995
   -29.2649 -29.2581 -29.2271 -29.2107 -29.1995 -29.1889 -29.1767 -29.1575
   -29.1339 -29.1192 -29.1095 -29.0959 -29.0899 -29.0824 -29.0613 -29.0535
   -29.0380 -29.0339 -29.0242 -29.0061 -26.6220 -26.6046 -26.6033 -23.0246
   -23.0106 -22.9621 -22.9398 -22.9067 -22.8875 -22.8622 -22.8424 -22.8150
   -22.7888 -22.7733 -22.7660 -22.7402 -22.7352 -22.7276 -22.7151 -22.6951
   -22.6838  16.3139  16.5582  16.9645  17.3010  17.3812  17.7219  17.7998
    17.9656  18.1103  18.2843  18.3407  18.3835  18.4767  18.5429  18.6428
    18.7482  18.8497  19.1028  19.1875  19.2649  19.2896  19.4026  19.4390
    19.5995  19.6717  19.8150  19.8900  20.0315  20.0969  20.1959  20.2993
    20.3391  20.4177  20.4870  20.5473  20.6225  20.7380  20.7616  20.7998
    20.9009  20.9519  21.0294  21.1244  21.2427  21.3904  21.4835  21.5275
    21.5918  21.7568  21.8053  21.8681  22.0476  22.0805  22.2162  22.4832
    22.5515  22.7668  22.9089  22.9443  22.9948  23.0530  23.0873  23.3561
    23.4235  23.5678  23.5944  23.6649  23.6992  23.7902  23.8129  23.9002
    23.9265  24.2389  24.3630  24.5759  24.6361  25.1535  26.4568  26.5575
    28.4574  28.6461  29.0783  29.1975  29.6747  30.4706  30.6308  30.7886
    31.1937  31.5203  32.1773  33.5939  34.1930  34.4985  34.7501  35.0635
    35.2252  35.4847  35.6754  35.9743  36.2154  36.4527

          k = 0.0631 0.4806-0.2000 ( 27640 PWs)   bands (ev):

   -75.0362 -75.0325 -75.0215 -75.0166 -75.0093 -75.0040 -74.9958 -60.8932
   -55.0012 -54.9695 -54.9601 -54.9568 -54.9556 -54.9465 -43.4464 -43.4393
   -43.4391 -43.4294 -43.4280 -43.4280 -43.4271 -43.4236 -43.4191 -43.4168
   -43.4164 -43.4150 -43.4141 -43.4135 -43.4134 -43.4125 -43.4117 -43.4114
   -43.4111 -43.4099 -43.4051 -43.4048 -43.4041 -43.4036 -43.4033 -43.4032
   -43.4017 -43.3992 -43.3989 -43.3985 -43.3981 -43.3971 -43.3960 -43.3934
   -43.3929 -43.3925 -43.3920 -43.3908 -43.3873 -43.3873 -43.3864 -43.3861
   -43.3837 -43.3823 -43.3821 -43.3811 -43.3753 -43.3745 -43.3710 -29.2963
   -29.2677 -29.2622 -29.2322 -29.2120 -29.1996 -29.1804 -29.1714 -29.1546
   -29.1367 -29.1198 -29.1167 -29.0986 -29.0864 -29.0793 -29.0639 -29.0526
   -29.0359 -29.0325 -29.0214 -29.0108 -26.6220 -26.6046 -26.6033 -23.0241
   -23.0089 -22.9734 -22.9316 -22.9095 -22.8926 -22.8525 -22.8368 -22.8126
   -22.7898 -22.7777 -22.7620 -22.7484 -22.7366 -22.7282 -22.7184 -22.6972
   -22.6758  15.7728  16.5635  17.3789  17.5343  17.5834  17.8127  17.9084
    18.0000  18.0647  18.1946  18.2275  18.3438  18.4044  18.5100  18.5683
    18.6404  18.7422  18.7981  19.0481  19.1803  19.3173  19.4778  19.5137
    19.6047  19.6704  19.8360  19.9600  20.0133  20.1709  20.1965  20.4086
    20.5525  20.6421  20.6964  20.7434  20.7965  20.8862  20.9044  20.9553
    20.9780  21.0412  21.1075  21.2116  21.2546  21.3210  21.4312  21.4888
    21.5641  21.6038  21.7037  21.7778  22.1377  22.1446  22.2654  22.3263
    22.3599  22.4895  22.5298  22.5872  22.8276  22.9438  23.1158  23.2317
    23.2722  23.3902  23.5472  23.6233  23.6480  23.7241  23.7837  23.8318
    23.9900  24.2058  24.7781  25.3514  25.4367  25.6532  25.9977  26.0991
    27.5426  28.1039  28.6845  29.3442  29.8500  30.0884  30.6777  30.9979
    31.4500  31.9832  32.6192  32.9570  33.7251  34.1048  34.3967  34.4910
    35.4441  35.6985  35.8887  36.5530  36.8770  37.3972

          k = 0.2097-0.0496 0.0000 ( 27673 PWs)   bands (ev):

   -75.0377 -75.0314 -75.0202 -75.0173 -75.0087 -75.0045 -74.9961 -60.8932
   -55.0012 -54.9687 -54.9604 -54.9591 -54.9534 -54.9468 -43.4464 -43.4393
   -43.4391 -43.4294 -43.4280 -43.4280 -43.4271 -43.4236 -43.4191 -43.4168
   -43.4164 -43.4150 -43.4141 -43.4135 -43.4134 -43.4124 -43.4117 -43.4114
   -43.4111 -43.4099 -43.4051 -43.4048 -43.4041 -43.4036 -43.4033 -43.4032
   -43.4017 -43.3992 -43.3989 -43.3985 -43.3981 -43.3971 -43.3960 -43.3934
   -43.3929 -43.3925 -43.3920 -43.3908 -43.3873 -43.3873 -43.3864 -43.3861
   -43.3837 -43.3823 -43.3821 -43.3811 -43.3753 -43.3745 -43.3710 -29.2985
   -29.2723 -29.2593 -29.2390 -29.2078 -29.1901 -29.1832 -29.1662 -29.1591
   -29.1349 -29.1190 -29.1133 -29.1029 -29.0858 -29.0751 -29.0604 -29.0542
   -29.0527 -29.0288 -29.0183 -29.0100 -26.6220 -26.6046 -26.6034 -23.0241
   -23.0055 -22.9748 -22.9374 -22.9172 -22.8819 -22.8591 -22.8326 -22.8095
   -22.7848 -22.7815 -22.7631 -22.7462 -22.7382 -22.7295 -22.7185 -22.6977
   -22.6746  14.8638  17.2527  17.5350  17.6460  17.7652  18.0027  18.0799
    18.1709  18.2336  18.3378  18.3951  18.4788  18.4900  18.5553  18.6084
    18.6726  18.8767  18.9541  19.0790  19.1531  19.2351  19.3067  19.3591
    19.4641  19.5190  19.5556  19.7140  19.9480  20.1748  20.2337  20.3087
    20.3276  20.3660  20.4710  20.5196  20.5373  20.5974  20.6314  20.6684
    20.7565  20.8676  21.0413  21.2658  21.3892  21.5103  21.6301  21.7174
    21.7769  21.8334  22.0553  22.1611  22.2266  22.2666  22.4166  22.4681
    22.5194  22.6396  22.7346  22.7561  22.9751  23.0820  23.1693  23.2631
    23.3086  23.4658  23.5443  23.6407  23.6935  23.7189  23.7567  23.8078
    23.8340  23.8990  24.3539  25.1480  25.2262  25.6684  26.1501  26.3274
    26.6793  27.0692  28.1773  28.7349  29.1038  29.7831  30.4335  30.9024
    31.7910  32.6194  33.9084  34.0605  34.2272  34.7681  34.9972  35.4396
    35.6242  36.2268  36.9928  37.3298  37.3706  37.6911

          k = 0.1466-0.0994 0.2000 ( 27655 PWs)   bands (ev):

   -75.0376 -75.0314 -75.0200 -75.0173 -75.0097 -75.0040 -74.9959 -60.8932
   -55.0001 -54.9705 -54.9632 -54.9568 -54.9541 -54.9450 -43.4464 -43.4393
   -43.4391 -43.4294 -43.4280 -43.4280 -43.4271 -43.4236 -43.4191 -43.4168
   -43.4164 -43.4150 -43.4141 -43.4135 -43.4134 -43.4124 -43.4117 -43.4114
   -43.4111 -43.4099 -43.4051 -43.4048 -43.4041 -43.4036 -43.4033 -43.4032
   -43.4017 -43.3992 -43.3989 -43.3985 -43.3981 -43.3971 -43.3960 -43.3934
   -43.3929 -43.3925 -43.3920 -43.3908 -43.3873 -43.3873 -43.3864 -43.3861
   -43.3837 -43.3823 -43.3821 -43.3811 -43.3753 -43.3745 -43.3710 -29.3002
   -29.2697 -29.2556 -29.2337 -29.2069 -29.1985 -29.1801 -29.1662 -29.1597
   -29.1405 -29.1246 -29.1145 -29.0995 -29.0900 -29.0741 -29.0606 -29.0579
   -29.0453 -29.0243 -29.0181 -29.0107 -26.6220 -26.6046 -26.6034 -23.0244
   -22.9976 -22.9784 -22.9306 -22.9222 -22.8842 -22.8584 -22.8418 -22.8098
   -22.7975 -22.7792 -22.7515 -22.7467 -22.7371 -22.7275 -22.7158 -22.6935
   -22.6798  14.9868  17.2603  17.4613  17.5612  17.7782  17.8074  17.9483
    18.0575  18.1301  18.3210  18.4019  18.5795  18.5932  18.6891  18.7664
    18.8769  18.8990  18.9637  19.0516  19.0798  19.2015  19.2927  19.4556
    19.4647  19.5900  19.7918  19.8202  19.9038  19.9781  20.0358  20.1645
    20.2201  20.3004  20.3781  20.5014  20.5504  20.5606  20.6203  20.6928
    20.8115  20.8370  21.0214  21.2832  21.4961  21.5727  21.7293  21.8206
    21.8908  21.9456  21.9930  22.0757  22.1553  22.2409  22.3213  22.3898
    22.4493  22.5352  22.5715  22.8267  22.8556  22.9474  23.2055  23.2817
    23.3325  23.6412  23.6731  23.6994  23.7755  23.8373  23.8819  23.9585
    23.9966  24.0245  24.2734  24.7162  25.1308  25.3544  26.1784  26.4575
    26.5096  27.1234  28.2162  28.3913  29.7939  30.4141  30.7326  31.6053
    31.9891  32.4880  32.9262  33.9196  34.4438  34.7154  34.8027  35.4147
    35.8915  36.1967  36.3340  36.4617  36.8941  37.2173

          k = 0.0835-0.1492 0.4000 ( 27649 PWs)   bands (ev):

   -75.0371 -75.0315 -75.0203 -75.0173 -75.0107 -75.0034 -74.9957 -60.8932
   -54.9967 -54.9766 -54.9641 -54.9554 -54.9542 -54.9427 -43.4464 -43.4393
   -43.4391 -43.4294 -43.4280 -43.4280 -43.4271 -43.4236 -43.4191 -43.4168
   -43.4164 -43.4150 -43.4141 -43.4135 -43.4134 -43.4124 -43.4117 -43.4114
   -43.4111 -43.4099 -43.4051 -43.4048 -43.4041 -43.4036 -43.4033 -43.4032
   -43.4017 -43.3992 -43.3989 -43.3985 -43.3981 -43.3971 -43.3960 -43.3934
   -43.3929 -43.3925 -43.3920 -43.3908 -43.3873 -43.3873 -43.3864 -43.3861
   -43.3837 -43.3823 -43.3821 -43.3811 -43.3753 -43.3745 -43.3710 -29.2965
   -29.2678 -29.2533 -29.2391 -29.2166 -29.2030 -29.1858 -29.1606 -29.1533
   -29.1344 -29.1211 -29.1152 -29.0956 -29.0922 -29.0785 -29.0661 -29.0501
   -29.0351 -29.0281 -29.0230 -29.0155 -26.6220 -26.6046 -26.6033 -23.0245
   -23.0023 -22.9648 -22.9382 -22.9147 -22.8828 -22.8621 -22.8514 -22.8118
   -22.7962 -22.7840 -22.7505 -22.7402 -22.7358 -22.7265 -22.7125 -22.6925
   -22.6853  15.5226  16.8046  17.3302  17.4318  17.6451  17.7976  17.8848
    18.0506  18.1537  18.2633  18.3268  18.3918  18.4941  18.5469  18.5921
    18.7333  18.9451  18.9789  19.0295  19.0745  19.2199  19.3304  19.4219
    19.5810  19.8901  19.9247  19.9940  20.0274  20.1260  20.2313  20.2900
    20.3361  20.3829  20.4605  20.5670  20.6378  20.7381  20.7796  20.8208
    20.8541  20.9283  21.0036  21.0392  21.1138  21.4144  21.5911  21.7086
    21.8024  21.8509  21.8891  21.9798  22.0972  22.1239  22.2104  22.3375
    22.4945  22.6116  22.6311  22.7073  22.7933  23.0566  23.0622  23.4639
    23.5937  23.6198  23.6742  23.6913  23.7728  23.8029  23.8456  23.8680
    24.0766  24.1789  24.2208  24.7054  24.9480  25.0808  25.3219  26.9893
    27.8262  28.0472  28.4684  29.0311  29.7727  30.3508  30.8285  31.2532
    31.9483  32.2662  32.7194  32.8217  33.4780  34.0828  34.5074  35.3683
    35.8166  35.9324  36.3407  36.4884  36.8849  36.9199

          k = 0.3359 0.0500-0.4000 ( 27647 PWs)   bands (ev):

   -75.0369 -75.0315 -75.0208 -75.0173 -75.0104 -75.0033 -74.9957 -60.8932
   -54.9959 -54.9781 -54.9639 -54.9556 -54.9535 -54.9426 -43.4464 -43.4393
   -43.4391 -43.4294 -43.4280 -43.4280 -43.4271 -43.4236 -43.4191 -43.4168
   -43.4164 -43.4150 -43.4141 -43.4135 -43.4134 -43.4124 -43.4117 -43.4114
   -43.4111 -43.4099 -43.4051 -43.4048 -43.4041 -43.4036 -43.4033 -43.4032
   -43.4017 -43.3992 -43.3989 -43.3985 -43.3981 -43.3971 -43.3960 -43.3934
   -43.3929 -43.3925 -43.3920 -43.3908 -43.3873 -43.3873 -43.3864 -43.3861
   -43.3837 -43.3823 -43.3821 -43.3811 -43.3753 -43.3745 -43.3710 -29.2892
   -29.2740 -29.2572 -29.2457 -29.2179 -29.2029 -29.1853 -29.1578 -29.1524
   -29.1315 -29.1201 -29.1046 -29.0949 -29.0890 -29.0781 -29.0654 -29.0513
   -29.0405 -29.0290 -29.0262 -29.0179 -26.6220 -26.6046 -26.6033 -23.0244
   -23.0088 -22.9579 -22.9431 -22.9101 -22.8826 -22.8631 -22.8467 -22.8117
   -22.7990 -22.7786 -22.7526 -22.7396 -22.7357 -22.7278 -22.7160 -22.6984
   -22.6801  15.8622  16.3992  17.3316  17.4585  17.8099  17.8589  17.9339
    17.9738  18.0551  18.1185  18.2197  18.3095  18.4258  18.5267  18.5977
    18.6323  18.7013  18.8261  19.0499  19.1375  19.4223  19.5067  19.5736
    19.6006  19.6716  19.8016  19.8498  19.9821  20.1457  20.2279  20.4279
    20.5535  20.6068  20.7139  20.7956  20.8098  20.8491  20.9177  20.9567
    21.0024  21.0603  21.0888  21.1586  21.2502  21.3252  21.4425  21.4938
    21.5363  21.5933  21.7037  21.8672  22.0615  22.0974  22.2841  22.3249
    22.3882  22.5075  22.5550  22.6236  22.8179  22.8999  23.0687  23.2466
    23.3382  23.4148  23.5212  23.5961  23.6624  23.7157  23.8188  23.8434
    23.9465  24.2142  24.7633  25.3571  25.4315  25.6822  25.9565  26.1177
    27.5396  28.0794  28.6424  29.3420  29.7357  30.1264  30.7475  31.1272
    31.4455  31.8661  32.6894  32.8388  33.8826  33.9358  34.4398  34.7436
    35.3587  35.6692  35.8539  36.5476  36.9523  37.2989

          k = 0.2728 0.0002-0.2000 ( 27668 PWs)   bands (ev):

   -75.0373 -75.0314 -75.0207 -75.0173 -75.0093 -75.0039 -74.9959 -60.8932
   -54.9992 -54.9727 -54.9631 -54.9566 -54.9530 -54.9450 -43.4464 -43.4393
   -43.4391 -43.4294 -43.4280 -43.4280 -43.4271 -43.4236 -43.4191 -43.4168
   -43.4164 -43.4150 -43.4141 -43.4135 -43.4134 -43.4124 -43.4117 -43.4114
   -43.4111 -43.4099 -43.4051 -43.4048 -43.4041 -43.4036 -43.4033 -43.4032
   -43.4017 -43.3992 -43.3989 -43.3985 -43.3981 -43.3971 -43.3960 -43.3934
   -43.3929 -43.3925 -43.3920 -43.3908 -43.3873 -43.3873 -43.3864 -43.3861
   -43.3837 -43.3823 -43.3821 -43.3811 -43.3753 -43.3745 -43.3710 -29.2908
   -29.2762 -29.2611 -29.2451 -29.2142 -29.1991 -29.1719 -29.1677 -29.1553
   -29.1308 -29.1224 -29.1072 -29.0971 -29.0801 -29.0734 -29.0624 -29.0598
   -29.0438 -29.0390 -29.0214 -29.0123 -26.6220 -26.6046 -26.6033 -23.0241
   -23.0105 -22.9685 -22.9386 -22.9080 -22.8882 -22.8584 -22.8348 -22.8081
   -22.8017 -22.7674 -22.7593 -22.7467 -22.7364 -22.7307 -22.7188 -22.7013
   -22.6745  15.1833  17.1399  17.4233  17.5847  17.6757  17.8841  18.0291
    18.0360  18.1507  18.2101  18.2990  18.3471  18.4212  18.5480  18.5910
    18.6766  18.7990  18.9015  18.9684  19.1432  19.2071  19.3732  19.5040
    19.6043  19.6647  19.8214  19.9019  20.0250  20.0890  20.1457  20.1874
    20.3962  20.4800  20.5285  20.5997  20.7140  20.7906  20.8546  20.9206
    21.0439  21.1138  21.1562  21.2207  21.2859  21.3339  21.4375  21.5399
    21.7178  21.7782  21.9484  22.0295  22.0869  22.1600  22.1745  22.3750
    22.4419  22.4864  22.6192  22.7666  22.8502  22.9768  23.0367  23.1746
    23.3144  23.4860  23.5313  23.5961  23.6974  23.7461  23.7809  23.8017
    23.8428  23.9772  24.3378  25.0601  25.7435  26.0781  26.4757  27.1667
    27.3095  27.4821  27.5746  27.9152  29.3471  30.0188  30.5139  30.9750
    31.0812  32.4188  33.0227  33.4349  34.2075  34.9255  35.4231  35.6370
    36.0000  36.2455  36.4396  36.6863  36.9311  37.0541

          k = 0.2097 0.1658 0.0000 ( 27662 PWs)   bands (ev):

   -75.0373 -75.0316 -75.0209 -75.0170 -75.0087 -75.0045 -74.9960 -60.8932
   -55.0013 -54.9687 -54.9604 -54.9591 -54.9534 -54.9468 -43.4464 -43.4393
   -43.4391 -43.4294 -43.4280 -43.4280 -43.4271 -43.4236 -43.4191 -43.4168
   -43.4164 -43.4150 -43.4141 -43.4135 -43.4134 -43.4124 -43.4117 -43.4114
   -43.4111 -43.4099 -43.4051 -43.4048 -43.4041 -43.4036 -43.4033 -43.4032
   -43.4017 -43.3992 -43.3989 -43.3985 -43.3981 -43.3971 -43.3960 -43.3934
   -43.3929 -43.3925 -43.3920 -43.3908 -43.3873 -43.3873 -43.3864 -43.3861
   -43.3837 -43.3823 -43.3821 -43.3811 -43.3753 -43.3745 -43.3710 -29.2996
   -29.2689 -29.2638 -29.2328 -29.2078 -29.1911 -29.1766 -29.1705 -29.1622
   -29.1393 -29.1197 -29.1127 -29.1018 -29.0870 -29.0776 -29.0606 -29.0532
   -29.0466 -29.0279 -29.0199 -29.0114 -26.6220 -26.6046 -26.6033 -23.0240
   -23.0057 -22.9749 -22.9370 -22.9176 -22.8820 -22.8588 -22.8325 -22.8098
   -22.7848 -22.7811 -22.7627 -22.7463 -22.7384 -22.7295 -22.7185 -22.6978
   -22.6746  14.9867  17.2702  17.4852  17.6145  17.6822  17.8068  17.9888
    18.0720  18.1167  18.2409  18.3888  18.5334  18.6058  18.7430  18.7668
    18.8179  18.9762  18.9869  19.0732  19.1503  19.2001  19.2539  19.3555
    19.4727  19.5783  19.7845  19.8718  19.9555  20.0042  20.0431  20.1445
    20.2299  20.2911  20.3281  20.4808  20.5251  20.5759  20.5948  20.7444
    20.7842  20.8664  21.0225  21.3155  21.4757  21.5395  21.7042  21.7446
    21.9317  21.9534  22.0114  22.1342  22.1875  22.2501  22.3152  22.3658
    22.4327  22.5399  22.6061  22.8234  22.8523  22.9318  23.1723  23.2632
    23.3690  23.5961  23.6895  23.7366  23.7840  23.8083  23.8529  23.9874
    24.0048  24.0231  24.2614  24.7130  25.1490  25.3217  26.1776  26.4051
    26.6356  27.1094  28.1509  28.4362  29.8071  30.4402  30.6400  31.4571
    32.0636  32.6537  33.0057  33.8806  34.4375  34.6094  34.9681  35.2870
    35.8499  36.1719  36.3216  36.4684  36.9375  37.1771

          k = 0.1466 0.1160 0.2000 ( 27604 PWs)   bands (ev):

   -75.0373 -75.0316 -75.0205 -75.0169 -75.0097 -75.0039 -74.9959 -60.8932
   -55.0001 -54.9705 -54.9632 -54.9568 -54.9541 -54.9450 -43.4464 -43.4393
   -43.4391 -43.4294 -43.4280 -43.4280 -43.4271 -43.4236 -43.4191 -43.4168
   -43.4164 -43.4150 -43.4141 -43.4135 -43.4134 -43.4124 -43.4117 -43.4114
   -43.4111 -43.4099 -43.4051 -43.4048 -43.4041 -43.4036 -43.4033 -43.4032
   -43.4017 -43.3992 -43.3989 -43.3985 -43.3981 -43.3971 -43.3960 -43.3934
   -43.3929 -43.3925 -43.3920 -43.3908 -43.3873 -43.3873 -43.3864 -43.3861
   -43.3837 -43.3823 -43.3821 -43.3811 -43.3753 -43.3745 -43.3710 -29.2949
   -29.2679 -29.2599 -29.2350 -29.2076 -29.1896 -29.1882 -29.1695 -29.1538
   -29.1415 -29.1283 -29.1169 -29.1006 -29.0885 -29.0786 -29.0634 -29.0531
   -29.0411 -29.0231 -29.0173 -29.0122 -26.6220 -26.6046 -26.6033 -23.0244
   -22.9983 -22.9784 -22.9306 -22.9225 -22.8838 -22.8584 -22.8418 -22.8100
   -22.7974 -22.7788 -22.7514 -22.7466 -22.7369 -22.7274 -22.7159 -22.6935
   -22.6798  15.0095  17.1233  17.5597  17.6018  17.7537  17.7984  17.9964
    18.0872  18.2361  18.3252  18.3569  18.3742  18.5335  18.6071  18.7257
    18.7837  18.8964  19.0852  19.0994  19.1631  19.3072  19.3412  19.3730
    19.6778  19.7548  19.8027  19.8573  19.9299  19.9612  20.0571  20.0865
    20.1704  20.2932  20.3986  20.4588  20.5361  20.5547  20.5857  20.6459
    20.6620  21.1312  21.1578  21.1877  21.4647  21.4971  21.5541  21.8158
    21.8677  21.9069  22.0506  22.1064  22.1593  22.2137  22.2384  22.3019
    22.3528  22.4195  22.4615  22.6553  22.6671  22.7062  23.4881  23.4997
    23.7034  23.7339  23.7610  23.7969  23.8282  23.8382  23.9207  23.9366
    23.9547  24.6636  24.7194  24.7790  25.3533  25.4310  25.4852  25.5132
    25.5666  25.6983  29.3485  29.6455  29.8514  31.7440  32.1331  32.2432
    32.3096  32.5358  32.8040  32.9994  33.9385  34.1381  34.4015  34.9140
    35.1725  35.2543  36.4569  36.7041  36.8265  37.5746

          k = 0.0835 0.0662 0.4000 ( 27642 PWs)   bands (ev):

   -75.0368 -75.0316 -75.0208 -75.0169 -75.0107 -75.0033 -74.9957 -60.8932
   -54.9967 -54.9766 -54.9641 -54.9554 -54.9542 -54.9427 -43.4464 -43.4393
   -43.4391 -43.4294 -43.4280 -43.4280 -43.4271 -43.4236 -43.4191 -43.4168
   -43.4164 -43.4150 -43.4141 -43.4135 -43.4134 -43.4124 -43.4117 -43.4114
   -43.4111 -43.4099 -43.4051 -43.4048 -43.4041 -43.4036 -43.4033 -43.4032
   -43.4017 -43.3992 -43.3989 -43.3985 -43.3981 -43.3971 -43.3960 -43.3934
   -43.3929 -43.3925 -43.3920 -43.3908 -43.3873 -43.3873 -43.3864 -43.3861
   -43.3837 -43.3823 -43.3821 -43.3811 -43.3753 -43.3745 -43.3710 -29.2883
   -29.2701 -29.2541 -29.2454 -29.2114 -29.2005 -29.1865 -29.1619 -29.1568
   -29.1357 -29.1214 -29.1155 -29.0965 -29.0906 -29.0852 -29.0585 -29.0554
   -29.0377 -29.0274 -29.0188 -29.0132 -26.6220 -26.6046 -26.6033 -23.0246
   -23.0029 -22.9649 -22.9384 -22.9145 -22.8824 -22.8624 -22.8516 -22.8120
   -22.7963 -22.7837 -22.7504 -22.7401 -22.7354 -22.7260 -22.7126 -22.6925
   -22.6853  15.4637  16.9907  17.2215  17.5128  17.6454  17.7232  17.8347
    18.0039  18.1608  18.1960  18.2489  18.3465  18.3886  18.6160  18.7581
    18.8372  18.9031  18.9471  19.2389  19.2764  19.3706  19.4211  19.5563
    19.6157  19.7177  19.8191  19.9152  20.0579  20.1010  20.1289  20.2044
    20.2920  20.3538  20.4568  20.5805  20.6177  20.7215  20.7732  20.8108
    20.8939  20.9662  21.0503  21.1573  21.2727  21.4330  21.4610  21.5198
    21.6261  21.8098  21.9111  21.9836  22.0162  22.0806  22.2088  22.2391
    22.2809  22.4890  22.5115  22.9339  23.0974  23.2453  23.2852  23.3520
    23.4944  23.5209  23.5636  23.6676  23.7592  23.8411  23.9021  24.0067
    24.1112  24.2368  24.3458  24.3903  24.9371  25.1194  25.6373  26.1438
    26.4396  27.7311  29.1615  30.1065  30.6348  30.9158  31.4078  31.5856
    32.2236  32.6669  32.9636  33.3113  33.8526  34.2727  34.3480  34.7950
    34.9999  35.3890  35.5848  35.7558  35.9663  36.5562

          k = 0.3359 0.2654-0.4000 ( 27643 PWs)   bands (ev):

   -75.0366 -75.0316 -75.0214 -75.0170 -75.0104 -75.0033 -74.9956 -60.8932
   -54.9959 -54.9781 -54.9640 -54.9556 -54.9535 -54.9426 -43.4464 -43.4393
   -43.4391 -43.4294 -43.4280 -43.4280 -43.4271 -43.4236 -43.4191 -43.4168
   -43.4164 -43.4150 -43.4141 -43.4135 -43.4134 -43.4124 -43.4117 -43.4114
   -43.4111 -43.4099 -43.4051 -43.4048 -43.4041 -43.4036 -43.4033 -43.4032
   -43.4017 -43.3992 -43.3989 -43.3985 -43.3981 -43.3971 -43.3960 -43.3934
   -43.3929 -43.3925 -43.3920 -43.3908 -43.3873 -43.3873 -43.3864 -43.3861
   -43.3837 -43.3823 -43.3821 -43.3811 -43.3753 -43.3745 -43.3710 -29.2893
   -29.2749 -29.2570 -29.2397 -29.2194 -29.2022 -29.1845 -29.1625 -29.1503
   -29.1358 -29.1157 -29.1057 -29.0965 -29.0906 -29.0815 -29.0592 -29.0539
   -29.0422 -29.0327 -29.0254 -29.0120 -26.6220 -26.6046 -26.6033 -23.0245
   -23.0090 -22.9580 -22.9433 -22.9094 -22.8825 -22.8632 -22.8467 -22.8121
   -22.7990 -22.7789 -22.7522 -22.7397 -22.7356 -22.7277 -22.7161 -22.6982
   -22.6801  16.0760  16.3312  17.2090  17.5200  17.7035  17.7857  17.8433
    17.9588  18.0271  18.0615  18.2389  18.2910  18.3542  18.5350  18.6295
    18.7071  18.8214  18.9058  19.2059  19.3104  19.3965  19.4700  19.5004
    19.7260  19.7533  19.8118  19.9301  19.9569  20.0268  20.1335  20.2436
    20.4891  20.5525  20.6849  20.6950  20.7682  20.8457  20.8969  20.9776
    21.0015  21.0854  21.1110  21.1811  21.2160  21.2840  21.4380  21.5472
    21.6326  21.7539  21.8451  21.9044  21.9686  22.0029  22.1318  22.1948
    22.5222  22.6321  22.7241  22.7820  22.9267  22.9532  22.9849  23.0421
    23.1469  23.1762  23.6459  23.7037  23.7259  23.7585  23.8667  23.9339
    23.9466  24.0342  24.1984  24.6293  25.4655  25.7920  26.5676  26.7675
    27.3845  28.0386  28.5402  29.4741  29.7551  30.1710  30.6763  31.5299
    31.9615  32.5318  32.8836  33.3113  33.6272  33.8572  34.3732  34.5484
    35.1739  35.2568  35.7583  35.8998  36.3472  36.8409

          k = 0.2728 0.2156-0.2000 ( 27667 PWs)   bands (ev):

   -75.0369 -75.0316 -75.0214 -75.0170 -75.0093 -75.0039 -74.9958 -60.8932
   -54.9992 -54.9727 -54.9631 -54.9566 -54.9530 -54.9450 -43.4464 -43.4393
   -43.4391 -43.4294 -43.4280 -43.4280 -43.4271 -43.4236 -43.4191 -43.4168
   -43.4164 -43.4150 -43.4141 -43.4135 -43.4134 -43.4124 -43.4117 -43.4114
   -43.4111 -43.4099 -43.4051 -43.4048 -43.4041 -43.4036 -43.4033 -43.4032
   -43.4017 -43.3992 -43.3989 -43.3985 -43.3981 -43.3971 -43.3960 -43.3934
   -43.3929 -43.3925 -43.3920 -43.3908 -43.3873 -43.3873 -43.3864 -43.3861
   -43.3837 -43.3823 -43.3821 -43.3811 -43.3753 -43.3745 -43.3710 -29.2977
   -29.2702 -29.2644 -29.2335 -29.2169 -29.2006 -29.1733 -29.1669 -29.1536
   -29.1369 -29.1196 -29.1074 -29.0986 -29.0817 -29.0752 -29.0622 -29.0559
   -29.0447 -29.0340 -29.0273 -29.0102 -26.6220 -26.6046 -26.6033 -23.0240
   -23.0104 -22.9687 -22.9383 -22.9078 -22.8883 -22.8584 -22.8345 -22.8086
   -22.8015 -22.7678 -22.7588 -22.7468 -22.7366 -22.7308 -22.7191 -22.7012
   -22.6745  15.3893  17.0990  17.3285  17.5731  17.6457  17.7402  17.8817
    18.0031  18.0459  18.1352  18.2717  18.3691  18.5427  18.6198  18.6967
    18.7893  18.8428  18.8793  18.9552  19.1778  19.2622  19.3060  19.4065
    19.6362  19.7227  19.8373  19.9411  20.0224  20.0678  20.1335  20.1661
    20.3251  20.4774  20.5631  20.6381  20.6793  20.7742  20.8453  20.8777
    20.9393  21.0227  21.0751  21.3055  21.3435  21.4054  21.4884  21.6888
    21.7293  21.8113  21.8715  22.0178  22.0591  22.1376  22.1927  22.3257
    22.4132  22.4283  22.6629  22.8155  22.9210  22.9784  23.0847  23.2350
    23.2943  23.3306  23.4481  23.5925  23.6399  23.6943  23.8196  23.8623
    23.8883  23.9549  24.0452  24.9629  26.1905  26.5728  26.6686  26.8506
    27.2150  27.4311  27.9032  28.2744  28.8428  29.8224  30.6501  31.1012
    31.7457  32.3830  33.1416  33.7754  34.3116  34.4904  34.7837  35.1067
    35.6816  35.8899  36.1635  36.2344  36.4003  36.6678

          k = 0.2097 0.3812 0.0000 ( 27644 PWs)   bands (ev):

   -75.0364 -75.0324 -75.0216 -75.0166 -75.0086 -75.0045 -74.9959 -60.8932
   -55.0013 -54.9687 -54.9604 -54.9591 -54.9533 -54.9468 -43.4464 -43.4393
   -43.4391 -43.4294 -43.4280 -43.4280 -43.4271 -43.4236 -43.4191 -43.4168
   -43.4164 -43.4150 -43.4141 -43.4135 -43.4134 -43.4125 -43.4117 -43.4114
   -43.4111 -43.4099 -43.4051 -43.4048 -43.4041 -43.4036 -43.4033 -43.4032
   -43.4017 -43.3992 -43.3989 -43.3985 -43.3981 -43.3971 -43.3960 -43.3934
   -43.3929 -43.3925 -43.3920 -43.3908 -43.3873 -43.3873 -43.3864 -43.3861
   -43.3837 -43.3823 -43.3821 -43.3811 -43.3753 -43.3745 -43.3710 -29.2948
   -29.2723 -29.2617 -29.2342 -29.2116 -29.1996 -29.1761 -29.1651 -29.1542
   -29.1399 -29.1227 -29.1124 -29.1010 -29.0914 -29.0795 -29.0614 -29.0493
   -29.0388 -29.0268 -29.0233 -29.0148 -26.6220 -26.6046 -26.6033 -23.0238
   -23.0060 -22.9746 -22.9365 -22.9176 -22.8821 -22.8585 -22.8321 -22.8101
   -22.7851 -22.7809 -22.7625 -22.7461 -22.7384 -22.7300 -22.7193 -22.6978
   -22.6748  15.5036  16.8659  17.4169  17.5377  17.6104  17.7648  17.8711
    17.9457  17.9886  18.1295  18.1799  18.3076  18.4625  18.6076  18.7410
    18.7847  18.9881  19.0518  19.1685  19.2890  19.3408  19.4265  19.5072
    19.5648  19.7148  19.8587  19.8926  19.9512  20.0277  20.0732  20.2472
    20.3273  20.4262  20.4917  20.6074  20.6847  20.7110  20.7936  20.8919
    20.9162  21.0455  21.1248  21.1690  21.2149  21.3016  21.4354  21.6074
    21.6930  21.8085  21.8873  21.9993  22.0825  22.1775  22.2073  22.2999
    22.3606  22.4780  22.5643  22.6341  22.9572  23.0870  23.2119  23.2611
    23.4582  23.5761  23.6157  23.6659  23.7636  23.8255  23.8717  23.8875
    23.9797  24.1299  24.3617  24.4600  25.2801  25.7236  26.2559  26.5490
    27.2197  27.4378  28.0314  29.6278  29.9039  30.2969  30.5667  31.8375
    32.0227  32.4480  32.6994  33.2994  33.9095  34.1949  34.4446  35.0007
    35.2232  35.3819  35.4707  35.7788  36.2857  36.9773

          k = 0.1466 0.3314 0.2000 ( 27643 PWs)   bands (ev):

   -75.0364 -75.0324 -75.0212 -75.0166 -75.0097 -75.0039 -74.9958 -60.8932
   -55.0001 -54.9705 -54.9632 -54.9567 -54.9541 -54.9450 -43.4464 -43.4393
   -43.4391 -43.4294 -43.4280 -43.4280 -43.4271 -43.4236 -43.4191 -43.4168
   -43.4164 -43.4150 -43.4141 -43.4135 -43.4134 -43.4125 -43.4117 -43.4114
   -43.4111 -43.4099 -43.4051 -43.4048 -43.4041 -43.4036 -43.4033 -43.4032
   -43.4017 -43.3992 -43.3989 -43.3985 -43.3981 -43.3971 -43.3960 -43.3934
   -43.3929 -43.3925 -43.3920 -43.3908 -43.3873 -43.3873 -43.3864 -43.3861
   -43.3837 -43.3823 -43.3821 -43.3811 -43.3753 -43.3745 -43.3710 -29.2876
   -29.2709 -29.2598 -29.2378 -29.2151 -29.1949 -29.1762 -29.1717 -29.1495
   -29.1409 -29.1308 -29.1171 -29.1007 -29.0884 -29.0817 -29.0658 -29.0494
   -29.0361 -29.0279 -29.0175 -29.0110 -26.6220 -26.6046 -26.6033 -23.0242
   -22.9985 -22.9782 -22.9302 -22.9228 -22.8835 -22.8580 -22.8419 -22.8106
   -22.7971 -22.7787 -22.7515 -22.7464 -22.7371 -22.7278 -22.7163 -22.6936
   -22.6797  15.4401  17.0329  17.3077  17.5124  17.6257  17.7864  17.8462
    17.9098  18.0687  18.2264  18.2435  18.3056  18.3789  18.6321  18.7408
    18.8638  18.9240  18.9745  19.1885  19.2341  19.3071  19.4680  19.5948
    19.6664  19.7298  19.7966  19.9393  20.0147  20.0881  20.1277  20.2726
    20.3269  20.3810  20.4781  20.5389  20.5922  20.7129  20.7790  20.7966
    20.8850  20.9475  21.0554  21.1772  21.2656  21.4129  21.4261  21.5195
    21.6583  21.7518  21.9067  21.9898  22.0583  22.1450  22.1853  22.2342
    22.2909  22.4589  22.5573  22.9146  23.0627  23.2155  23.3073  23.3706
    23.4977  23.5165  23.5767  23.6363  23.7967  23.8346  23.8642  24.0399
    24.1038  24.2125  24.3339  24.3870  24.9135  25.1623  25.6254  26.1414
    26.4673  27.7499  29.1439  30.1300  30.7252  30.9327  31.3534  31.5780
    32.2488  32.4989  33.1693  33.4231  33.6614  34.0255  34.5367  34.7882
    35.1091  35.1991  35.5908  35.8021  35.9738  36.5568

          k = 0.0835 0.2816 0.4000 ( 27618 PWs)   bands (ev):

   -75.0362 -75.0320 -75.0216 -75.0166 -75.0107 -75.0031 -74.9957 -60.8932
   -54.9967 -54.9766 -54.9641 -54.9554 -54.9542 -54.9427 -43.4464 -43.4393
   -43.4391 -43.4294 -43.4280 -43.4280 -43.4271 -43.4236 -43.4191 -43.4168
   -43.4164 -43.4150 -43.4141 -43.4135 -43.4134 -43.4124 -43.4117 -43.4114
   -43.4111 -43.4099 -43.4051 -43.4048 -43.4041 -43.4036 -43.4033 -43.4032
   -43.4017 -43.3992 -43.3989 -43.3985 -43.3981 -43.3971 -43.3960 -43.3934
   -43.3929 -43.3925 -43.3920 -43.3908 -43.3873 -43.3873 -43.3864 -43.3861
   -43.3837 -43.3823 -43.3821 -43.3811 -43.3753 -43.3745 -43.3710 -29.2891
   -29.2657 -29.2578 -29.2400 -29.2106 -29.1925 -29.1865 -29.1726 -29.1597
   -29.1372 -29.1232 -29.1157 -29.0975 -29.0901 -29.0854 -29.0616 -29.0527
   -29.0403 -29.0283 -29.0184 -29.0059 -26.6220 -26.6046 -26.6033 -23.0246
   -23.0029 -22.9648 -22.9386 -22.9149 -22.8816 -22.8631 -22.8515 -22.8120
   -22.7963 -22.7838 -22.7505 -22.7403 -22.7352 -22.7262 -22.7124 -22.6926
   -22.6851  15.7715  16.9795  17.1964  17.3632  17.5092  17.6427  17.8624
    18.0282  18.1176  18.2074  18.2349  18.3095  18.4732  18.5459  18.6349
    18.7290  18.8474  18.9231  18.9489  19.3731  19.4144  19.5811  19.6696
    19.7665  19.8179  19.9025  19.9663  20.0760  20.1813  20.2450  20.3305
    20.4002  20.4190  20.4916  20.5438  20.5955  20.6403  20.7079  20.7430
    20.8207  20.8436  20.9047  21.0028  21.1018  21.1460  21.3401  21.4694
    21.5748  21.6908  21.9452  21.9788  22.0834  22.3092  22.3849  22.4614
    22.6218  22.7507  22.7606  22.7914  22.9168  23.0026  23.2072  23.2655
    23.4485  23.4671  23.6089  23.6721  23.7586  23.7805  23.8271  23.9426
    23.9993  24.0716  24.1862  24.3526  24.6176  25.7107  25.8926  26.1069
    26.6588  28.2808  30.0071  30.2949  30.6584  30.8663  31.2218  31.4222
    32.2247  32.5866  32.9734  33.5171  33.7852  34.2158  34.4751  34.6782
    35.0610  35.5443  35.7208  35.8306  35.9947  36.1078

          k = 0.3359 0.4808-0.4000 ( 27624 PWs)   bands (ev):

   -75.0361 -75.0318 -75.0223 -75.0166 -75.0104 -75.0031 -74.9956 -60.8932
   -54.9959 -54.9781 -54.9640 -54.9556 -54.9535 -54.9426 -43.4464 -43.4393
   -43.4391 -43.4294 -43.4280 -43.4280 -43.4271 -43.4236 -43.4191 -43.4168
   -43.4164 -43.4150 -43.4141 -43.4135 -43.4134 -43.4124 -43.4117 -43.4114
   -43.4111 -43.4099 -43.4051 -43.4048 -43.4041 -43.4036 -43.4033 -43.4032
   -43.4017 -43.3992 -43.3989 -43.3985 -43.3981 -43.3971 -43.3960 -43.3934
   -43.3929 -43.3925 -43.3920 -43.3908 -43.3873 -43.3873 -43.3864 -43.3861
   -43.3837 -43.3823 -43.3821 -43.3811 -43.3753 -43.3745 -43.3710 -29.2960
   -29.2688 -29.2555 -29.2301 -29.2141 -29.2010 -29.1846 -29.1726 -29.1573
   -29.1345 -29.1204 -29.1027 -29.1006 -29.0932 -29.0830 -29.0617 -29.0527
   -29.0393 -29.0309 -29.0258 -29.0060 -26.6220 -26.6046 -26.6033 -23.0244
   -23.0093 -22.9579 -22.9432 -22.9095 -22.8827 -22.8634 -22.8469 -22.8119
   -22.7987 -22.7793 -22.7522 -22.7394 -22.7357 -22.7273 -22.7161 -22.6982
   -22.6801  16.4163  16.5408  16.9404  17.4335  17.5000  17.6247  17.7843
    17.8568  17.9048  18.0577  18.3019  18.3710  18.5206  18.7411  18.8035
    18.8279  18.8973  18.9633  19.0749  19.1477  19.2181  19.4264  19.5380
    19.6137  19.8345  19.9689  20.0109  20.0702  20.1233  20.2057  20.2696
    20.2858  20.3385  20.4607  20.5949  20.6438  20.7139  20.8052  20.8281
    20.8635  20.9038  21.0051  21.0566  21.2275  21.2990  21.5330  21.6177
    21.8216  21.8719  21.9230  22.0564  22.1119  22.1895  22.2019  22.2297
    22.4295  22.5385  22.7851  22.8104  22.8677  22.9371  23.0324  23.1659
    23.3391  23.5171  23.5668  23.6227  23.7218  23.7819  23.8611  23.9061
    23.9553  24.1013  24.1095  24.2203  25.2019  25.7895  25.9341  27.1026
    27.7688  28.5816  28.8996  29.4666  30.2183  30.7788  30.9896  31.3303
    31.6965  31.9547  33.0949  33.3924  33.5479  33.9713  34.2385  34.5825
    35.0039  35.6676  35.9572  36.1872  36.2904  36.4098

          k = 0.2728 0.4310-0.2000 ( 27654 PWs)   bands (ev):

   -75.0362 -75.0320 -75.0222 -75.0166 -75.0092 -75.0038 -74.9958 -60.8932
   -54.9993 -54.9727 -54.9631 -54.9566 -54.9530 -54.9450 -43.4464 -43.4393
   -43.4391 -43.4294 -43.4280 -43.4280 -43.4271 -43.4236 -43.4191 -43.4168
   -43.4164 -43.4150 -43.4141 -43.4135 -43.4134 -43.4125 -43.4117 -43.4114
   -43.4111 -43.4099 -43.4051 -43.4048 -43.4041 -43.4036 -43.4033 -43.4032
   -43.4017 -43.3992 -43.3989 -43.3985 -43.3981 -43.3971 -43.3960 -43.3934
   -43.3929 -43.3925 -43.3920 -43.3908 -43.3873 -43.3873 -43.3864 -43.3861
   -43.3837 -43.3823 -43.3821 -43.3811 -43.3753 -43.3745 -43.3710 -29.2989
   -29.2699 -29.2615 -29.2305 -29.2116 -29.2006 -29.1807 -29.1688 -29.1540
   -29.1366 -29.1197 -29.1105 -29.0996 -29.0833 -29.0817 -29.0594 -29.0543
   -29.0373 -29.0329 -29.0288 -29.0103 -26.6220 -26.6046 -26.6033 -23.0238
   -23.0108 -22.9686 -22.9378 -22.9075 -22.8887 -22.8584 -22.8341 -22.8089
   -22.8016 -22.7676 -22.7586 -22.7469 -22.7368 -22.7308 -22.7197 -22.7009
   -22.6746  15.9211  16.7443  17.1533  17.5356  17.6158  17.7245  17.8329
    17.8686  17.9451  18.0474  18.1646  18.4126  18.4403  18.6620  18.7266
    18.8265  18.8692  18.9412  19.1180  19.2503  19.3025  19.4181  19.4864
    19.5427  19.6198  19.8150  19.8817  19.9897  20.1162  20.1967  20.3110
    20.3335  20.4317  20.5306  20.6241  20.6876  20.7495  20.7878  20.8329
    20.9135  20.9576  21.0803  21.2688  21.3652  21.4632  21.6306  21.6517
    21.7482  21.7794  21.8910  21.9798  21.9922  22.0756  22.2179  22.3069
    22.4511  22.5300  22.5807  22.6764  22.8409  23.0575  23.0892  23.2382
    23.2920  23.3862  23.4375  23.5257  23.6196  23.6997  23.8339  23.9120
    24.0770  24.1701  24.3482  24.7068  25.1209  26.6392  26.7648  26.8362
    27.1717  27.9980  28.3194  28.9759  29.2509  30.2582  31.0403  31.3569
    31.9867  32.4331  32.5694  33.0495  33.2924  33.9074  34.4948  34.5929
    34.9853  35.7334  36.0174  36.3261  36.4196  37.0537

          k = 0.2097-0.4803 0.0000 ( 27645 PWs)   bands (ev):

   -75.0362 -75.0326 -75.0215 -75.0166 -75.0086 -75.0045 -74.9959 -60.8932
   -55.0013 -54.9687 -54.9604 -54.9591 -54.9533 -54.9468 -43.4464 -43.4393
   -43.4391 -43.4294 -43.4280 -43.4280 -43.4271 -43.4236 -43.4191 -43.4168
   -43.4164 -43.4150 -43.4141 -43.4135 -43.4134 -43.4125 -43.4117 -43.4114
   -43.4111 -43.4099 -43.4051 -43.4048 -43.4041 -43.4036 -43.4033 -43.4032
   -43.4017 -43.3992 -43.3989 -43.3985 -43.3981 -43.3971 -43.3960 -43.3934
   -43.3929 -43.3925 -43.3920 -43.3908 -43.3873 -43.3873 -43.3864 -43.3861
   -43.3837 -43.3823 -43.3821 -43.3811 -43.3753 -43.3745 -43.3710 -29.2880
   -29.2772 -29.2569 -29.2470 -29.2088 -29.2037 -29.1738 -29.1660 -29.1472
   -29.1378 -29.1244 -29.1128 -29.1031 -29.0894 -29.0781 -29.0622 -29.0488
   -29.0397 -29.0293 -29.0217 -29.0149 -26.6220 -26.6046 -26.6033 -23.0237
   -23.0060 -22.9744 -22.9364 -22.9173 -22.8821 -22.8587 -22.8319 -22.8100
   -22.7853 -22.7810 -22.7627 -22.7459 -22.7382 -22.7303 -22.7198 -22.6978
   -22.6748  15.7543  16.5815  17.4063  17.5675  17.6742  17.7597  17.9263
    17.9865  18.0285  18.1072  18.1604  18.2525  18.3847  18.5525  18.6015
    18.6358  18.6982  18.7843  19.0942  19.2395  19.3686  19.4613  19.6272
    19.6872  19.8464  19.8771  19.9844  20.0835  20.1237  20.1988  20.2786
    20.3862  20.5368  20.6973  20.7584  20.7882  20.8046  20.8405  20.9053
    20.9691  21.0787  21.1370  21.2237  21.3029  21.3439  21.4027  21.4251
    21.4622  21.6431  21.7618  21.8347  21.9608  22.1914  22.2879  22.3530
    22.3901  22.4858  22.5711  22.6193  22.8222  23.0336  23.1737  23.2633
    23.2872  23.4543  23.5057  23.6450  23.7317  23.7650  23.8428  23.8710
    23.9330  24.1758  24.4349  24.6489  25.7231  25.7580  25.8956  26.8963
    27.5870  28.1903  28.3780  28.6711  30.0810  30.4816  30.6533  31.1689
    31.4343  31.9381  32.4281  32.8082  33.0614  34.2128  34.8156  35.2775
    35.4168  35.7946  36.2971  36.4013  36.5879  36.8572

          k = 0.1466-0.5301 0.2000 ( 27646 PWs)   bands (ev):

   -75.0362 -75.0326 -75.0212 -75.0166 -75.0097 -75.0039 -74.9958 -60.8932
   -55.0001 -54.9705 -54.9632 -54.9568 -54.9541 -54.9450 -43.4464 -43.4393
   -43.4391 -43.4294 -43.4280 -43.4280 -43.4271 -43.4236 -43.4191 -43.4168
   -43.4164 -43.4150 -43.4141 -43.4135 -43.4134 -43.4125 -43.4117 -43.4114
   -43.4111 -43.4099 -43.4051 -43.4048 -43.4041 -43.4036 -43.4033 -43.4032
   -43.4017 -43.3992 -43.3989 -43.3985 -43.3981 -43.3971 -43.3960 -43.3934
   -43.3929 -43.3925 -43.3920 -43.3908 -43.3873 -43.3873 -43.3864 -43.3861
   -43.3837 -43.3823 -43.3821 -43.3811 -43.3753 -43.3745 -43.3710 -29.2904
   -29.2731 -29.2555 -29.2383 -29.2166 -29.1988 -29.1787 -29.1660 -29.1495
   -29.1382 -29.1300 -29.1136 -29.0991 -29.0907 -29.0809 -29.0648 -29.0515
   -29.0360 -29.0318 -29.0178 -29.0097 -26.6220 -26.6046 -26.6033 -23.0240
   -22.9979 -22.9781 -22.9300 -22.9226 -22.8837 -22.8578 -22.8420 -22.8108
   -22.7971 -22.7790 -22.7515 -22.7465 -22.7373 -22.7282 -22.7166 -22.6937
   -22.6796  15.9035  16.5579  17.3130  17.4762  17.7006  17.7123  17.8172
    17.9509  18.0304  18.1008  18.2342  18.3217  18.3598  18.4892  18.6252
    18.6861  18.7706  18.9211  19.1891  19.2886  19.3598  19.4121  19.5671
    19.7790  19.8003  19.8466  19.9170  19.9718  20.0503  20.1314  20.2197
    20.4457  20.5838  20.6760  20.7004  20.7544  20.8281  20.8872  20.9540
    21.0040  21.0742  21.1200  21.1719  21.2289  21.3081  21.4537  21.5545
    21.6628  21.7264  21.8016  21.8882  21.9874  22.0176  22.1546  22.2293
    22.5509  22.6588  22.6704  22.8199  22.8721  22.9167  22.9823  23.0392
    23.1204  23.1832  23.6451  23.6620  23.7023  23.7482  23.9108  23.9454
    23.9696  24.0436  24.1865  24.6215  25.4390  25.8298  26.5370  26.7886
    27.4004  28.0481  28.5444  29.4546  29.8579  30.2102  30.7507  31.5840
    31.8541  32.4565  32.7180  33.2729  33.5972  34.0319  34.3549  34.6094
    35.0990  35.1934  35.7559  35.9204  36.3362  36.9545

          k = 0.0835-0.5799 0.4000 ( 27624 PWs)   bands (ev):

   -75.0362 -75.0321 -75.0216 -75.0166 -75.0107 -75.0031 -74.9956 -60.8932
   -54.9967 -54.9766 -54.9641 -54.9554 -54.9542 -54.9427 -43.4464 -43.4393
   -43.4391 -43.4294 -43.4280 -43.4280 -43.4271 -43.4236 -43.4191 -43.4168
   -43.4164 -43.4150 -43.4141 -43.4135 -43.4134 -43.4124 -43.4117 -43.4114
   -43.4111 -43.4099 -43.4051 -43.4048 -43.4041 -43.4036 -43.4033 -43.4032
   -43.4017 -43.3992 -43.3989 -43.3985 -43.3981 -43.3971 -43.3960 -43.3934
   -43.3929 -43.3925 -43.3920 -43.3908 -43.3873 -43.3873 -43.3864 -43.3861
   -43.3837 -43.3823 -43.3821 -43.3811 -43.3753 -43.3745 -43.3710 -29.2963
   -29.2625 -29.2592 -29.2273 -29.2153 -29.1945 -29.1862 -29.1771 -29.1553
   -29.1381 -29.1238 -29.1150 -29.0971 -29.0893 -29.0852 -29.0618 -29.0543
   -29.0377 -29.0311 -29.0182 -29.0055 -26.6220 -26.6046 -26.6033 -23.0243
   -23.0024 -22.9645 -22.9385 -22.9152 -22.8815 -22.8633 -22.8513 -22.8118
   -22.7962 -22.7842 -22.7507 -22.7405 -22.7353 -22.7268 -22.7122 -22.6926
   -22.6850  16.2413  16.6981  17.1053  17.2502  17.4859  17.6051  17.8326
    17.9917  18.0784  18.1349  18.2083  18.2468  18.3968  18.6390  18.7112
    18.8475  18.9265  19.0822  19.1800  19.2409  19.3230  19.4316  19.5219
    19.5861  19.6660  19.7809  19.8154  19.9602  20.0005  20.0429  20.2654
    20.3961  20.4606  20.5070  20.5773  20.7043  20.7306  20.7674  20.8394
    21.0045  21.0567  21.1057  21.1231  21.2115  21.4421  21.5180  21.5870
    21.6552  21.7669  21.9189  22.0697  22.1967  22.2911  22.3419  22.3868
    22.4511  22.5428  22.8783  22.9393  22.9535  23.0005  23.0393  23.1559
    23.2221  23.3830  23.4895  23.5296  23.5572  23.6098  23.6776  23.8318
    23.8619  24.0247  24.0770  24.1625  25.1728  26.4155  26.5483  26.8030
    27.4352  28.0595  28.9083  30.0632  30.4506  30.6646  30.9932  31.3561
    31.6195  31.8851  32.4891  33.2952  33.6816  34.0233  34.6163  34.6533
    35.3013  35.5640  35.8961  36.0938  36.1954  36.5228

          k = 0.3359-0.3807-0.4000 ( 27641 PWs)   bands (ev):

   -75.0362 -75.0317 -75.0223 -75.0166 -75.0104 -75.0031 -74.9957 -60.8932
   -54.9959 -54.9781 -54.9639 -54.9556 -54.9535 -54.9426 -43.4464 -43.4393
   -43.4391 -43.4294 -43.4280 -43.4280 -43.4271 -43.4236 -43.4191 -43.4168
   -43.4164 -43.4150 -43.4141 -43.4135 -43.4134 -43.4124 -43.4117 -43.4114
   -43.4111 -43.4099 -43.4051 -43.4048 -43.4041 -43.4036 -43.4033 -43.4032
   -43.4017 -43.3992 -43.3989 -43.3985 -43.3981 -43.3971 -43.3960 -43.3934
   -43.3929 -43.3925 -43.3920 -43.3908 -43.3873 -43.3873 -43.3864 -43.3861
   -43.3837 -43.3823 -43.3821 -43.3811 -43.3753 -43.3745 -43.3710 -29.2987
   -29.2645 -29.2558 -29.2334 -29.2049 -29.2001 -29.1871 -29.1730 -29.1636
   -29.1334 -29.1243 -29.1034 -29.0996 -29.0920 -29.0827 -29.0622 -29.0550
   -29.0341 -29.0311 -29.0263 -29.0059 -26.6220 -26.6046 -26.6033 -23.0243
   -23.0093 -22.9577 -22.9429 -22.9101 -22.8829 -22.8633 -22.8470 -22.8116
   -22.7986 -22.7793 -22.7527 -22.7393 -22.7359 -22.7270 -22.7159 -22.6984
   -22.6801  16.3060  16.7288  17.0548  17.3214  17.4267  17.5675  17.7773
    17.8696  18.0904  18.1210  18.2226  18.3503  18.5675  18.6072  18.6887
    18.8624  18.9439  19.1329  19.2084  19.2702  19.3848  19.4340  19.4816
    19.5075  19.5722  19.6473  19.7934  19.9038  20.0020  20.1829  20.2295
    20.3579  20.4470  20.5234  20.5525  20.6186  20.6664  20.7536  20.7969
    20.9041  21.0697  21.1643  21.2307  21.2484  21.3501  21.4645  21.6824
    21.7343  21.7980  21.9992  22.0259  22.0942  22.1038  22.2448  22.4451
    22.5635  22.6368  22.7357  22.8052  22.8402  22.9925  23.2109  23.3652
    23.3741  23.4562  23.4864  23.5778  23.6419  23.6981  23.7949  23.8332
    23.8991  23.9989  24.0489  24.2139  24.7488  26.3932  26.8218  27.1318
    27.5773  28.4237  28.7416  28.9959  29.9922  30.4092  31.0571  31.3845
    31.8201  32.2677  32.7336  33.1916  33.4599  34.1888  34.4260  34.9478
    35.2523  35.3656  35.4818  35.7591  36.1356  36.2210

          k = 0.2728-0.4305-0.2000 ( 27658 PWs)   bands (ev):

   -75.0362 -75.0321 -75.0222 -75.0166 -75.0092 -75.0038 -74.9958 -60.8932
   -54.9993 -54.9727 -54.9631 -54.9566 -54.9530 -54.9450 -43.4464 -43.4393
   -43.4391 -43.4294 -43.4280 -43.4280 -43.4271 -43.4236 -43.4191 -43.4168
   -43.4164 -43.4150 -43.4141 -43.4135 -43.4134 -43.4125 -43.4117 -43.4114
   -43.4111 -43.4099 -43.4051 -43.4048 -43.4041 -43.4036 -43.4033 -43.4032
   -43.4017 -43.3992 -43.3989 -43.3985 -43.3981 -43.3971 -43.3960 -43.3934
   -43.3929 -43.3925 -43.3920 -43.3908 -43.3873 -43.3873 -43.3864 -43.3861
   -43.3837 -43.3823 -43.3821 -43.3811 -43.3753 -43.3745 -43.3710 -29.2950
   -29.2691 -29.2581 -29.2452 -29.2075 -29.1959 -29.1758 -29.1718 -29.1601
   -29.1353 -29.1240 -29.1078 -29.0996 -29.0851 -29.0794 -29.0613 -29.0502
   -29.0416 -29.0335 -29.0232 -29.0114 -26.6220 -26.6046 -26.6033 -23.0238
   -23.0111 -22.9684 -22.9377 -22.9075 -22.8889 -22.8584 -22.8340 -22.8086
   -22.8018 -22.7671 -22.7589 -22.7469 -22.7368 -22.7308 -22.7199 -22.7008
   -22.6746  15.8754  16.8509  17.2076  17.5016  17.5668  17.6885  17.7771
    17.9061  17.9258  18.0741  18.1828  18.3499  18.5594  18.5912  18.7317
    18.8430  18.9906  19.0389  19.1218  19.1624  19.2520  19.3278  19.3943
    19.5261  19.6455  19.8017  19.9060  19.9859  20.0628  20.1637  20.3150
    20.3689  20.4377  20.4864  20.5793  20.6391  20.7494  20.7754  20.8004
    20.8483  20.9988  21.3291  21.3497  21.5361  21.5651  21.6022  21.6844
    21.7463  21.8089  21.8517  21.9236  22.0451  22.1000  22.1473  22.3081
    22.3281  22.4221  22.4929  22.7413  22.8666  22.9504  23.1279  23.1866
    23.3031  23.5859  23.6237  23.6775  23.7336  23.7800  23.8101  23.8751
    23.9503  23.9711  24.1299  24.2867  25.9021  26.2520  26.3241  26.7957
    27.1318  28.1166  28.9529  29.3818  29.8189  30.1232  30.5891  30.6519
    31.3511  31.7411  32.9969  33.2470  33.7335  34.0799  34.8024  35.1231
    35.4286  35.7324  36.1121  36.2425  36.4089  36.6433

          k = 0.2097-0.2650 0.0000 ( 27676 PWs)   bands (ev):

   -75.0371 -75.0318 -75.0207 -75.0169 -75.0087 -75.0045 -74.9960 -60.8932
   -55.0013 -54.9687 -54.9604 -54.9591 -54.9534 -54.9468 -43.4464 -43.4393
   -43.4391 -43.4294 -43.4280 -43.4280 -43.4271 -43.4236 -43.4191 -43.4168
   -43.4164 -43.4150 -43.4141 -43.4135 -43.4134 -43.4124 -43.4117 -43.4114
   -43.4111 -43.4099 -43.4051 -43.4048 -43.4041 -43.4036 -43.4033 -43.4032
   -43.4017 -43.3992 -43.3989 -43.3985 -43.3981 -43.3971 -43.3960 -43.3934
   -43.3929 -43.3925 -43.3920 -43.3908 -43.3873 -43.3873 -43.3864 -43.3861
   -43.3837 -43.3823 -43.3821 -43.3811 -43.3753 -43.3745 -43.3710 -29.2904
   -29.2774 -29.2575 -29.2465 -29.2070 -29.1983 -29.1789 -29.1676 -29.1506
   -29.1328 -29.1220 -29.1135 -29.1037 -29.0851 -29.0763 -29.0628 -29.0524
   -29.0480 -29.0294 -29.0192 -29.0116 -26.6220 -26.6046 -26.6033 -23.0239
   -23.0057 -22.9745 -22.9370 -22.9171 -22.8819 -22.8590 -22.8322 -22.8096
   -22.7851 -22.7814 -22.7631 -22.7459 -22.7380 -22.7299 -22.7193 -22.6976
   -22.6747  15.1686  17.1845  17.4549  17.5827  17.6779  17.8236  17.9834
    18.1077  18.1514  18.2333  18.3195  18.3648  18.4235  18.5257  18.6103
    18.6542  18.7997  18.8610  18.9203  19.1390  19.2072  19.4048  19.4693
    19.5957  19.6672  19.7842  19.9591  19.9778  20.0995  20.1723  20.2363
    20.3775  20.4996  20.5467  20.6360  20.7194  20.7586  20.8142  20.9389
    21.0020  21.0697  21.1323  21.2254  21.2912  21.3159  21.4667  21.5408
    21.7608  21.7844  21.9611  21.9939  22.0653  22.1700  22.2699  22.3939
    22.4369  22.4685  22.6447  22.7222  22.8443  22.9172  23.0245  23.2395
    23.2812  23.4554  23.5680  23.6108  23.6956  23.7217  23.7812  23.8271
    23.8456  23.9555  24.3243  25.0791  25.7216  26.0712  26.4720  27.2181
    27.3120  27.4129  27.6174  27.9343  29.4207  30.0097  30.3937  30.9874
    31.2281  32.3780  32.9250  33.4952  34.0644  35.0177  35.4314  35.5823
    36.0110  36.2550  36.4640  36.6970  36.8709  37.0566

          k = 0.1466-0.3148 0.2000 ( 27666 PWs)   bands (ev):

   -75.0370 -75.0319 -75.0205 -75.0169 -75.0098 -75.0039 -74.9958 -60.8932
   -55.0001 -54.9705 -54.9632 -54.9568 -54.9541 -54.9450 -43.4464 -43.4393
   -43.4391 -43.4294 -43.4280 -43.4280 -43.4271 -43.4236 -43.4191 -43.4168
   -43.4164 -43.4150 -43.4141 -43.4135 -43.4134 -43.4124 -43.4117 -43.4114
   -43.4111 -43.4099 -43.4051 -43.4048 -43.4041 -43.4036 -43.4033 -43.4032
   -43.4017 -43.3992 -43.3989 -43.3985 -43.3981 -43.3971 -43.3960 -43.3934
   -43.3929 -43.3925 -43.3920 -43.3908 -43.3873 -43.3873 -43.3864 -43.3861
   -43.3837 -43.3823 -43.3821 -43.3811 -43.3753 -43.3745 -43.3710 -29.2979
   -29.2721 -29.2551 -29.2335 -29.2136 -29.1986 -29.1768 -29.1697 -29.1552
   -29.1375 -29.1262 -29.1116 -29.0983 -29.0902 -29.0761 -29.0637 -29.0561
   -29.0428 -29.0282 -29.0186 -29.0091 -26.6220 -26.6046 -26.6033 -23.0241
   -22.9973 -22.9782 -22.9302 -22.9223 -22.8841 -22.8580 -22.8419 -22.8103
   -22.7973 -22.7793 -22.7516 -22.7467 -22.7373 -22.7280 -22.7163 -22.6936
   -22.6797  15.3706  17.1409  17.3970  17.4867  17.6284  17.8021  17.8632
    17.9966  18.0791  18.1370  18.2308  18.4407  18.5257  18.6234  18.7153
    18.7656  18.8003  18.8733  18.9747  19.0941  19.2330  19.3106  19.4088
    19.6761  19.7107  19.8323  19.9597  20.0277  20.0549  20.1536  20.2176
    20.3200  20.4410  20.5991  20.6293  20.7098  20.7417  20.7954  20.8480
    20.9232  21.0373  21.0734  21.3118  21.3815  21.3924  21.5295  21.6504
    21.7311  21.8243  21.8888  22.0156  22.0850  22.1218  22.1941  22.3606
    22.4148  22.4866  22.6040  22.8151  22.8822  22.9516  23.0931  23.2025
    23.2848  23.3485  23.4120  23.6078  23.6239  23.7008  23.8227  23.8797
    23.9010  23.9503  24.0554  24.9549  26.2075  26.5879  26.6308  26.8518
    27.2019  27.4369  27.9255  28.2474  28.8953  29.9261  30.8571  30.9680
    31.5275  32.3862  33.0624  33.7978  34.3191  34.4640  34.8168  35.2154
    35.7080  35.7935  36.2008  36.2296  36.4647  36.6394

          k = 0.0835-0.3646 0.4000 ( 27655 PWs)   bands (ev):

   -75.0367 -75.0317 -75.0209 -75.0169 -75.0107 -75.0033 -74.9956 -60.8932
   -54.9967 -54.9766 -54.9641 -54.9554 -54.9542 -54.9427 -43.4464 -43.4393
   -43.4391 -43.4294 -43.4280 -43.4280 -43.4271 -43.4236 -43.4191 -43.4168
   -43.4164 -43.4150 -43.4141 -43.4135 -43.4134 -43.4124 -43.4117 -43.4114
   -43.4111 -43.4099 -43.4051 -43.4048 -43.4041 -43.4036 -43.4033 -43.4032
   -43.4017 -43.3992 -43.3989 -43.3985 -43.3981 -43.3971 -43.3960 -43.3934
   -43.3929 -43.3925 -43.3920 -43.3908 -43.3873 -43.3873 -43.3864 -43.3861
   -43.3837 -43.3823 -43.3821 -43.3811 -43.3753 -43.3745 -43.3710 -29.2999
   -29.2651 -29.2561 -29.2277 -29.2192 -29.1997 -29.1863 -29.1677 -29.1534
   -29.1374 -29.1223 -29.1131 -29.0967 -29.0896 -29.0827 -29.0628 -29.0514
   -29.0365 -29.0332 -29.0191 -29.0109 -26.6220 -26.6046 -26.6033 -23.0243
   -23.0020 -22.9645 -22.9382 -22.9151 -22.8823 -22.8627 -22.8512 -22.8117
   -22.7962 -22.7843 -22.7507 -22.7405 -22.7357 -22.7270 -22.7122 -22.6926
   -22.6851  15.8996  16.7828  17.3044  17.4274  17.4609  17.7261  17.7804
    17.9193  18.0430  18.0995  18.1845  18.2955  18.4981  18.6183  18.7152
    18.8560  19.0386  19.0654  19.1129  19.1564  19.2639  19.3178  19.3906
    19.5469  19.5773  19.7791  19.8993  20.0057  20.0305  20.1603  20.2946
    20.3911  20.4680  20.5153  20.5631  20.6566  20.7134  20.7700  20.8178
    20.8627  21.0042  21.3008  21.4050  21.5558  21.5754  21.6369  21.7100
    21.7633  21.8054  21.8369  21.9043  22.0189  22.0541  22.1163  22.2932
    22.3913  22.3970  22.4862  22.7378  22.8544  23.0232  23.0948  23.1573
    23.2306  23.5293  23.6329  23.7022  23.7484  23.7995  23.8338  23.8961
    23.9400  23.9667  24.1669  24.2694  25.9481  26.2551  26.3229  26.7715
    27.1258  28.0941  29.0133  29.2668  29.9982  30.1116  30.4922  30.6656
    31.3410  31.5605  33.1208  33.3074  33.7398  34.1959  34.8111  35.0064
    35.3106  35.7874  36.1444  36.2848  36.3733  36.6941

          k = 0.3359-0.1654-0.4000 ( 27656 PWs)   bands (ev):

   -75.0367 -75.0315 -75.0214 -75.0170 -75.0104 -75.0032 -74.9957 -60.8932
   -54.9959 -54.9781 -54.9639 -54.9556 -54.9535 -54.9426 -43.4464 -43.4393
   -43.4391 -43.4294 -43.4280 -43.4280 -43.4271 -43.4236 -43.4191 -43.4168
   -43.4164 -43.4150 -43.4141 -43.4135 -43.4134 -43.4124 -43.4117 -43.4114
   -43.4111 -43.4099 -43.4051 -43.4048 -43.4041 -43.4036 -43.4033 -43.4032
   -43.4017 -43.3992 -43.3989 -43.3985 -43.3981 -43.3971 -43.3960 -43.3934
   -43.3929 -43.3925 -43.3920 -43.3908 -43.3873 -43.3873 -43.3864 -43.3861
   -43.3837 -43.3823 -43.3821 -43.3811 -43.3753 -43.3745 -43.3710 -29.2963
   -29.2634 -29.2576 -29.2453 -29.2088 -29.2014 -29.1877 -29.1616 -29.1586
   -29.1333 -29.1231 -29.1038 -29.0980 -29.0923 -29.0783 -29.0612 -29.0538
   -29.0410 -29.0285 -29.0227 -29.0140 -26.6220 -26.6046 -26.6033 -23.0243
   -23.0089 -22.9577 -22.9429 -22.9105 -22.8828 -22.8632 -22.8468 -22.8115
   -22.7988 -22.7788 -22.7529 -22.7394 -22.7359 -22.7273 -22.7159 -22.6986
   -22.6801  15.9648  16.6104  17.3306  17.4272  17.5633  17.6590  17.8657
    17.9149  18.0009  18.0378  18.2074  18.3920  18.4917  18.6615  18.7253
    18.7847  18.8513  18.9753  19.0995  19.2673  19.3023  19.3354  19.4820
    19.5887  19.6911  19.8161  19.8736  19.9948  20.0516  20.1809  20.2882
    20.3316  20.4309  20.5538  20.6289  20.6848  20.7350  20.7920  20.8531
    20.9033  20.9315  21.0876  21.2687  21.3768  21.4905  21.6433  21.6854
    21.7515  21.7954  21.8975  21.9773  22.0212  22.1336  22.1921  22.2363
    22.4488  22.4791  22.5367  22.7188  22.8459  23.0631  23.0968  23.1966
    23.3126  23.3551  23.4415  23.5064  23.5985  23.7526  23.8735  23.9054
    24.0342  24.2038  24.3404  24.7048  25.1159  26.6022  26.8017  26.8592
    27.1555  27.9982  28.3430  28.8059  29.4604  30.2162  30.9568  31.4348
    31.8790  32.3539  32.6336  33.1035  33.4617  33.8411  34.5029  34.5315
    34.9529  35.9014  35.9949  36.2898  36.4100  37.0202

          k = 0.2728-0.2152-0.2000 ( 27670 PWs)   bands (ev):

   -75.0369 -75.0317 -75.0213 -75.0170 -75.0093 -75.0039 -74.9959 -60.8932
   -54.9992 -54.9727 -54.9631 -54.9566 -54.9530 -54.9450 -43.4464 -43.4393
   -43.4391 -43.4294 -43.4280 -43.4280 -43.4271 -43.4236 -43.4191 -43.4168
   -43.4164 -43.4150 -43.4141 -43.4135 -43.4134 -43.4124 -43.4117 -43.4114
   -43.4111 -43.4099 -43.4051 -43.4048 -43.4041 -43.4036 -43.4033 -43.4032
   -43.4017 -43.3992 -43.3989 -43.3985 -43.3981 -43.3971 -43.3960 -43.3934
   -43.3929 -43.3925 -43.3920 -43.3908 -43.3873 -43.3873 -43.3864 -43.3861
   -43.3837 -43.3823 -43.3821 -43.3811 -43.3753 -43.3745 -43.3710 -29.2886
   -29.2737 -29.2578 -29.2537 -29.2098 -29.1919 -29.1782 -29.1709 -29.1561
   -29.1329 -29.1240 -29.1064 -29.0979 -29.0841 -29.0757 -29.0630 -29.0513
   -29.0443 -29.0388 -29.0179 -29.0139 -26.6220 -26.6046 -26.6033 -23.0239
   -23.0109 -22.9683 -22.9382 -22.9078 -22.8886 -22.8584 -22.8345 -22.8081
   -22.8019 -22.7670 -22.7593 -22.7468 -22.7365 -22.7307 -22.7194 -22.7011
   -22.6746  15.3798  17.0974  17.4251  17.4944  17.6328  17.7258  17.9012
    17.9721  18.1028  18.1186  18.2782  18.4298  18.5599  18.6255  18.6878
    18.7512  18.7830  18.8803  18.9866  19.1170  19.2187  19.3287  19.4967
    19.5638  19.7640  19.8008  19.9777  20.0439  20.0968  20.1499  20.1631
    20.3172  20.4169  20.5082  20.6480  20.6994  20.7782  20.8283  20.8912
    20.9505  21.0206  21.0893  21.3039  21.3375  21.3711  21.5272  21.6569
    21.7210  21.8122  21.8947  22.0223  22.1134  22.1423  22.1908  22.3612
    22.3952  22.4785  22.5937  22.8149  22.8907  22.9227  23.1257  23.2051
    23.2563  23.3617  23.4933  23.6287  23.6655  23.6974  23.7936  23.8435
    23.8827  23.9264  24.0571  24.9480  26.1539  26.5908  26.6577  26.8175
    27.2815  27.3833  27.9027  28.3958  28.7722  30.0918  30.3379  31.2381
    31.6878  32.3904  33.0422  33.8533  34.2961  34.4548  34.8011  35.1308
    35.7273  35.8003  36.1546  36.2395  36.4997  36.6580

          k = 0.4194-0.0992 0.0000 ( 27630 PWs)   bands (ev):

   -75.0374 -75.0313 -75.0208 -75.0173 -75.0089 -75.0042 -74.9960 -60.8932
   -54.9982 -54.9751 -54.9606 -54.9593 -54.9524 -54.9440 -43.4464 -43.4393
   -43.4391 -43.4294 -43.4280 -43.4280 -43.4271 -43.4236 -43.4191 -43.4168
   -43.4164 -43.4150 -43.4141 -43.4135 -43.4134 -43.4124 -43.4117 -43.4114
   -43.4111 -43.4099 -43.4051 -43.4048 -43.4041 -43.4036 -43.4033 -43.4032
   -43.4017 -43.3992 -43.3989 -43.3985 -43.3981 -43.3971 -43.3960 -43.3934
   -43.3929 -43.3925 -43.3920 -43.3908 -43.3873 -43.3873 -43.3864 -43.3861
   -43.3837 -43.3823 -43.3821 -43.3811 -43.3753 -43.3745 -43.3710 -29.2919
   -29.2755 -29.2616 -29.2484 -29.2098 -29.1900 -29.1832 -29.1627 -29.1550
   -29.1317 -29.1182 -29.1126 -29.0966 -29.0813 -29.0729 -29.0634 -29.0556
   -29.0523 -29.0416 -29.0182 -29.0082 -26.6220 -26.6045 -26.6034 -23.0237
   -23.0018 -22.9702 -22.9453 -22.9198 -22.8776 -22.8685 -22.8253 -22.8120
   -22.7854 -22.7808 -22.7560 -22.7453 -22.7403 -22.7286 -22.7172 -22.6998
   -22.6785  15.4295  16.7095  17.4718  17.6494  17.7103  17.9076  18.0103
    18.0694  18.1087  18.2126  18.2479  18.2885  18.3292  18.3926  18.5015
    18.5266  18.6618  18.7799  18.9401  19.2171  19.3457  19.4163  19.5755
    19.7833  19.8268  19.9377  19.9562  20.0576  20.1576  20.2942  20.3865
    20.5630  20.6414  20.6618  20.7271  20.8019  20.8311  20.9038  20.9416
    20.9836  21.0969  21.1549  21.1639  21.2640  21.3010  21.3406  21.3621
    21.4334  21.6086  21.7386  21.7861  21.9374  22.0544  22.2053  22.4550
    22.5762  22.6160  22.7886  22.8392  22.8968  22.9563  23.0495  23.1383
    23.2101  23.3683  23.3910  23.4611  23.5414  23.6298  23.8876  23.9345
    23.9887  24.1209  24.6887  24.7976  25.4365  26.1412  26.3102  26.5787
    26.7638  27.5499  27.9468  28.9887  30.3488  30.4494  30.8965  31.3115
    31.8154  32.1044  32.5997  33.0654  33.2533  33.6674  34.1270  34.5179
    35.1345  36.3713  36.7065  36.9724  37.3069  37.6502

          k = 0.3563-0.1490 0.2000 ( 27654 PWs)   bands (ev):

   -75.0374 -75.0313 -75.0204 -75.0173 -75.0100 -75.0037 -74.9959 -60.8932
   -54.9970 -54.9757 -54.9647 -54.9567 -54.9527 -54.9428 -43.4464 -43.4393
   -43.4391 -43.4294 -43.4280 -43.4280 -43.4271 -43.4236 -43.4191 -43.4168
   -43.4164 -43.4150 -43.4141 -43.4135 -43.4134 -43.4124 -43.4117 -43.4114
   -43.4111 -43.4099 -43.4051 -43.4048 -43.4041 -43.4036 -43.4033 -43.4032
   -43.4017 -43.3992 -43.3989 -43.3985 -43.3981 -43.3971 -43.3960 -43.3934
   -43.3929 -43.3925 -43.3920 -43.3908 -43.3873 -43.3873 -43.3864 -43.3861
   -43.3837 -43.3823 -43.3821 -43.3811 -43.3753 -43.3745 -43.3710 -29.2979
   -29.2703 -29.2544 -29.2440 -29.2064 -29.1998 -29.1750 -29.1665 -29.1579
   -29.1359 -29.1253 -29.1081 -29.1016 -29.0907 -29.0767 -29.0608 -29.0571
   -29.0454 -29.0285 -29.0189 -29.0096 -26.6220 -26.6046 -26.6034 -23.0240
   -22.9921 -22.9761 -22.9387 -22.9234 -22.8802 -22.8656 -22.8330 -22.8194
   -22.7978 -22.7780 -22.7480 -22.7443 -22.7362 -22.7265 -22.7161 -22.6960
   -22.6809  15.4771  16.9757  17.3563  17.4677  17.6408  17.7573  17.8064
    17.9763  18.0775  18.1144  18.2250  18.3175  18.4515  18.6535  18.7144
    18.7264  18.9121  19.1274  19.1836  19.2724  19.3085  19.4709  19.5015
    19.6003  19.6974  19.8471  19.8673  19.9166  19.9993  20.0802  20.1808
    20.3307  20.4338  20.5020  20.6026  20.7169  20.7735  20.8394  20.8557
    20.9235  21.0201  21.0922  21.2026  21.2511  21.3248  21.4384  21.6113
    21.6308  21.8696  21.9154  21.9895  22.0281  22.1261  22.2224  22.2678
    22.3706  22.5217  22.5957  22.6242  22.9417  23.1270  23.1814  23.2356
    23.4448  23.5714  23.6303  23.7111  23.7503  23.8064  23.8538  23.8906
    23.9923  24.1631  24.3198  24.4846  25.3198  25.6964  26.2568  26.5132
    27.2200  27.4028  28.0598  29.5458  29.9818  30.2656  30.6442  31.6538
    32.1658  32.4110  32.6551  33.5069  33.8351  34.1783  34.3644  35.0875
    35.2228  35.3332  35.5830  35.7463  36.3831  36.9917

          k = 0.2932-0.1988 0.4000 ( 27653 PWs)   bands (ev):

   -75.0372 -75.0313 -75.0201 -75.0173 -75.0112 -75.0031 -74.9956 -60.8932
   -54.9936 -54.9795 -54.9675 -54.9554 -54.9527 -54.9410 -43.4464 -43.4393
   -43.4391 -43.4294 -43.4280 -43.4280 -43.4271 -43.4236 -43.4191 -43.4168
   -43.4164 -43.4150 -43.4141 -43.4135 -43.4134 -43.4124 -43.4117 -43.4114
   -43.4111 -43.4099 -43.4051 -43.4048 -43.4041 -43.4036 -43.4033 -43.4032
   -43.4017 -43.3992 -43.3989 -43.3985 -43.3981 -43.3971 -43.3960 -43.3934
   -43.3929 -43.3925 -43.3920 -43.3908 -43.3873 -43.3873 -43.3864 -43.3861
   -43.3837 -43.3823 -43.3821 -43.3811 -43.3753 -43.3745 -43.3710 -29.2998
   -29.2667 -29.2490 -29.2364 -29.2168 -29.1989 -29.1823 -29.1623 -29.1550
   -29.1401 -29.1277 -29.1140 -29.0983 -29.0942 -29.0790 -29.0657 -29.0490
   -29.0361 -29.0277 -29.0178 -29.0140 -26.6220 -26.6046 -26.6034 -23.0241
   -22.9907 -22.9706 -22.9346 -22.9203 -22.8815 -22.8670 -22.8490 -22.8227
   -22.7997 -22.7847 -22.7429 -22.7387 -22.7361 -22.7245 -22.7124 -22.6955
   -22.6811  15.8690  16.9135  17.1333  17.3770  17.4811  17.6348  17.7094
    17.9826  18.1455  18.2533  18.3327  18.3422  18.4676  18.6675  18.7841
    18.9197  18.9600  18.9999  19.1148  19.1592  19.3489  19.4016  19.4557
    19.5077  19.7360  19.8613  19.9088  20.0050  20.0781  20.1269  20.2400
    20.3529  20.4064  20.4292  20.4920  20.5807  20.6271  20.6499  20.7273
    20.8249  20.8743  20.9506  21.0062  21.0938  21.2665  21.3724  21.6674
    21.7129  21.8418  21.9761  22.1077  22.1601  22.2305  22.3608  22.4196
    22.4492  22.6483  22.8453  22.9418  22.9732  23.2591  23.3255  23.3806
    23.4316  23.5341  23.6996  23.7428  23.7694  23.8310  23.8600  23.8725
    23.9821  24.0778  24.1958  24.4572  24.7140  24.8245  25.9832  27.3240
    27.8603  28.2849  28.9194  29.1461  29.7082  30.2872  30.4570  31.4214
    31.8462  32.2255  32.8282  33.4460  33.7173  34.0665  34.4555  34.7923
    35.3704  35.9565  36.0041  36.2117  36.4408  36.5769

          k = 0.5456 0.0004-0.4000 ( 27666 PWs)   bands (ev):

   -75.0370 -75.0314 -75.0204 -75.0173 -75.0111 -75.0031 -74.9956 -60.8932
   -54.9927 -54.9808 -54.9672 -54.9555 -54.9525 -54.9409 -43.4464 -43.4393
   -43.4391 -43.4294 -43.4280 -43.4280 -43.4271 -43.4236 -43.4191 -43.4168
   -43.4164 -43.4150 -43.4141 -43.4135 -43.4134 -43.4124 -43.4117 -43.4114
   -43.4111 -43.4099 -43.4051 -43.4048 -43.4041 -43.4036 -43.4033 -43.4032
   -43.4017 -43.3992 -43.3989 -43.3985 -43.3981 -43.3971 -43.3960 -43.3934
   -43.3929 -43.3925 -43.3920 -43.3908 -43.3873 -43.3873 -43.3864 -43.3861
   -43.3837 -43.3823 -43.3821 -43.3811 -43.3753 -43.3745 -43.3710 -29.2970
   -29.2682 -29.2486 -29.2445 -29.2176 -29.1990 -29.1838 -29.1601 -29.1544
   -29.1336 -29.1246 -29.1112 -29.0985 -29.0943 -29.0799 -29.0653 -29.0477
   -29.0384 -29.0279 -29.0198 -29.0164 -26.6220 -26.6046 -26.6034 -23.0240
   -22.9978 -22.9631 -22.9407 -22.9118 -22.8868 -22.8625 -22.8493 -22.8217
   -22.7997 -22.7841 -22.7436 -22.7384 -22.7365 -22.7246 -22.7147 -22.6981
   -22.6788  16.1919  16.6315  17.0225  17.2767  17.5442  17.6685  17.7760
    17.9708  18.1489  18.2212  18.2911  18.3243  18.5114  18.5803  18.6240
    18.7599  18.8437  19.1199  19.1801  19.2375  19.2526  19.4129  19.4990
    19.6057  19.6894  19.8091  19.8613  20.0109  20.0829  20.1770  20.3214
    20.3472  20.3874  20.4896  20.5710  20.5993  20.7251  20.8090  20.8417
    20.9300  20.9668  21.0246  21.0893  21.2470  21.3933  21.4819  21.4942
    21.5588  21.7711  21.8181  21.8947  22.0346  22.0551  22.1686  22.5251
    22.5956  22.7160  22.9085  22.9582  23.0147  23.0501  23.1107  23.3415
    23.4191  23.4865  23.6427  23.6985  23.7285  23.7961  23.8305  23.8854
    23.9367  24.2149  24.3302  24.5211  24.6906  25.1387  26.4800  26.5375
    28.4194  28.5596  29.1054  29.2632  29.8400  30.1412  30.6326  30.9748
    31.1537  31.6571  32.1558  33.5924  34.1224  34.5665  34.7751  35.0224
    35.2472  35.4279  35.6454  36.0096  36.1985  36.4306

          k = 0.4825-0.0494-0.2000 ( 27642 PWs)   bands (ev):

   -75.0372 -75.0314 -75.0208 -75.0173 -75.0097 -75.0037 -74.9959 -60.8932
   -54.9962 -54.9772 -54.9645 -54.9566 -54.9523 -54.9427 -43.4464 -43.4393
   -43.4391 -43.4294 -43.4280 -43.4280 -43.4271 -43.4236 -43.4191 -43.4168
   -43.4164 -43.4150 -43.4141 -43.4135 -43.4134 -43.4124 -43.4117 -43.4114
   -43.4111 -43.4099 -43.4051 -43.4048 -43.4041 -43.4036 -43.4033 -43.4032
   -43.4017 -43.3992 -43.3989 -43.3985 -43.3981 -43.3971 -43.3960 -43.3934
   -43.3929 -43.3925 -43.3920 -43.3908 -43.3873 -43.3873 -43.3864 -43.3861
   -43.3837 -43.3823 -43.3821 -43.3811 -43.3753 -43.3745 -43.3710 -29.2909
   -29.2755 -29.2588 -29.2489 -29.2115 -29.1999 -29.1718 -29.1663 -29.1552
   -29.1324 -29.1222 -29.1044 -29.0976 -29.0848 -29.0778 -29.0609 -29.0534
   -29.0493 -29.0382 -29.0207 -29.0105 -26.6220 -26.6046 -26.6034 -23.0238
   -23.0031 -22.9652 -22.9454 -22.9148 -22.8797 -22.8682 -22.8316 -22.8152
   -22.7987 -22.7743 -22.7500 -22.7447 -22.7372 -22.7286 -22.7175 -22.7009
   -22.6772  15.7281  16.6728  17.2867  17.5188  17.7327  17.7849  17.8828
    18.0216  18.0770  18.1168  18.1643  18.2673  18.3394  18.5265  18.5745
    18.6467  18.6868  18.8486  19.0866  19.2577  19.3531  19.4918  19.6161
    19.6543  19.8305  19.8843  19.9405  20.0652  20.1592  20.2059  20.2992
    20.3995  20.5316  20.6750  20.7189  20.7815  20.8167  20.8850  20.9142
    20.9858  21.0740  21.1667  21.2296  21.2936  21.3690  21.4031  21.4286
    21.4844  21.6235  21.7393  21.8119  21.9407  22.1700  22.2590  22.3556
    22.3814  22.4814  22.5866  22.6612  22.8396  23.0369  23.1486  23.2382
    23.3066  23.4931  23.5262  23.6353  23.7167  23.7575  23.8412  23.8752
    23.9231  24.1831  24.4510  24.6670  25.7222  25.7939  25.8489  26.8433
    27.6123  28.1460  28.3677  28.6967  30.0364  30.4673  30.7348  30.9920
    31.4813  31.9593  32.3991  32.8546  33.2800  34.1547  34.8532  35.2088
    35.4092  35.9142  36.2949  36.3772  36.5807  36.8455

          k = 0.4194 0.1162 0.0000 ( 27652 PWs)   bands (ev):

   -75.0370 -75.0315 -75.0215 -75.0170 -75.0088 -75.0042 -74.9959 -60.8932
   -54.9982 -54.9751 -54.9606 -54.9593 -54.9524 -54.9440 -43.4464 -43.4393
   -43.4391 -43.4294 -43.4280 -43.4280 -43.4271 -43.4236 -43.4191 -43.4168
   -43.4164 -43.4150 -43.4141 -43.4135 -43.4134 -43.4124 -43.4117 -43.4114
   -43.4111 -43.4099 -43.4051 -43.4048 -43.4041 -43.4036 -43.4033 -43.4032
   -43.4017 -43.3992 -43.3989 -43.3985 -43.3981 -43.3971 -43.3960 -43.3934
   -43.3929 -43.3925 -43.3920 -43.3908 -43.3873 -43.3873 -43.3864 -43.3861
   -43.3837 -43.3823 -43.3821 -43.3811 -43.3753 -43.3745 -43.3710 -29.2968
   -29.2704 -29.2644 -29.2418 -29.2088 -29.1926 -29.1772 -29.1631 -29.1581
   -29.1382 -29.1186 -29.1121 -29.0979 -29.0836 -29.0755 -29.0612 -29.0524
   -29.0487 -29.0398 -29.0199 -29.0095 -26.6220 -26.6045 -26.6033 -23.0236
   -23.0019 -22.9702 -22.9448 -22.9205 -22.8776 -22.8684 -22.8259 -22.8120
   -22.7854 -22.7805 -22.7559 -22.7447 -22.7400 -22.7292 -22.7171 -22.6997
   -22.6786  15.4761  16.9601  17.3238  17.4522  17.5723  17.7942  17.8701
    18.0860  18.1525  18.2734  18.2995  18.3665  18.4237  18.5587  18.5990
    18.6962  18.9179  19.0057  19.0393  19.1579  19.2271  19.3235  19.3666
    19.5701  19.8892  19.9531  20.0054  20.1118  20.1606  20.1803  20.2792
    20.3542  20.3998  20.4293  20.5530  20.5838  20.6912  20.7507  20.7876
    20.8368  20.9524  21.0378  21.0769  21.1216  21.3980  21.5946  21.7170
    21.8408  21.8911  21.9131  21.9913  22.0452  22.1253  22.2412  22.3233
    22.4742  22.5886  22.6435  22.6937  22.7645  23.0567  23.0851  23.4986
    23.5805  23.6241  23.6842  23.7092  23.7544  23.7965  23.8243  23.8459
    24.0878  24.1864  24.1966  24.6902  24.9422  25.0857  25.3324  27.0632
    27.8416  27.9947  28.4566  29.0408  29.7813  30.2469  30.7021  31.5323
    32.0685  32.2386  32.5149  32.9100  33.4964  34.1035  34.4752  35.4234
    35.8513  35.9201  36.2509  36.4276  36.8185  36.9066

          k = 0.3563 0.0664 0.2000 ( 27639 PWs)   bands (ev):

   -75.0371 -75.0314 -75.0210 -75.0170 -75.0099 -75.0036 -74.9959 -60.8932
   -54.9970 -54.9757 -54.9647 -54.9567 -54.9527 -54.9428 -43.4464 -43.4393
   -43.4391 -43.4294 -43.4280 -43.4280 -43.4271 -43.4236 -43.4191 -43.4168
   -43.4164 -43.4150 -43.4141 -43.4135 -43.4134 -43.4124 -43.4117 -43.4114
   -43.4111 -43.4099 -43.4051 -43.4048 -43.4041 -43.4036 -43.4033 -43.4032
   -43.4017 -43.3992 -43.3989 -43.3985 -43.3981 -43.3971 -43.3960 -43.3934
   -43.3929 -43.3925 -43.3920 -43.3908 -43.3873 -43.3873 -43.3864 -43.3861
   -43.3837 -43.3823 -43.3821 -43.3811 -43.3753 -43.3745 -43.3710 -29.2981
   -29.2645 -29.2611 -29.2376 -29.2025 -29.1913 -29.1840 -29.1681 -29.1621
   -29.1401 -29.1269 -29.1092 -29.1021 -29.0908 -29.0804 -29.0626 -29.0536
   -29.0407 -29.0270 -29.0169 -29.0113 -26.6220 -26.6046 -26.6034 -23.0240
   -22.9926 -22.9764 -22.9386 -22.9239 -22.8797 -22.8656 -22.8332 -22.8191
   -22.7979 -22.7776 -22.7482 -22.7438 -22.7359 -22.7265 -22.7161 -22.6961
   -22.6809  15.4232  17.1192  17.2871  17.4552  17.5465  17.8170  17.8779
    18.0043  18.0904  18.1928  18.2585  18.3190  18.3639  18.5720  18.7268
    18.8413  18.9320  19.0037  19.2082  19.2749  19.3163  19.4201  19.5917
    19.6210  19.7064  19.7952  19.9855  20.0151  20.0749  20.1320  20.1858
    20.3158  20.3986  20.4528  20.5576  20.6337  20.7239  20.7674  20.8098
    20.8701  20.9989  21.0911  21.1168  21.2919  21.4237  21.4582  21.4970
    21.5884  21.8156  21.9025  21.9912  22.0433  22.1169  22.1872  22.2578
    22.2944  22.4887  22.5256  22.9509  23.0918  23.2009  23.2431  23.3715
    23.4698  23.5459  23.5682  23.6260  23.8150  23.8508  23.9216  24.0275
    24.0731  24.2323  24.3140  24.3965  24.9139  25.1543  25.6317  26.1524
    26.4248  27.7353  29.1682  30.0899  30.6006  31.0107  31.3714  31.6071
    32.2577  32.6446  32.9856  33.2409  33.8432  34.1770  34.5680  34.7328
    35.0952  35.2450  35.7074  35.7998  35.8981  36.5094

          k = 0.2932 0.0166 0.4000 ( 27617 PWs)   bands (ev):

   -75.0369 -75.0315 -75.0206 -75.0169 -75.0112 -75.0030 -74.9956 -60.8932
   -54.9935 -54.9795 -54.9675 -54.9554 -54.9527 -54.9410 -43.4464 -43.4393
   -43.4391 -43.4294 -43.4280 -43.4280 -43.4271 -43.4236 -43.4191 -43.4168
   -43.4164 -43.4150 -43.4141 -43.4135 -43.4134 -43.4124 -43.4117 -43.4114
   -43.4111 -43.4099 -43.4051 -43.4048 -43.4041 -43.4036 -43.4033 -43.4032
   -43.4017 -43.3992 -43.3989 -43.3985 -43.3981 -43.3971 -43.3960 -43.3934
   -43.3929 -43.3925 -43.3920 -43.3908 -43.3873 -43.3873 -43.3864 -43.3861
   -43.3837 -43.3823 -43.3821 -43.3811 -43.3753 -43.3745 -43.3710 -29.2951
   -29.2646 -29.2540 -29.2357 -29.2126 -29.1971 -29.1858 -29.1648 -29.1527
   -29.1430 -29.1302 -29.1156 -29.1000 -29.0916 -29.0843 -29.0597 -29.0558
   -29.0352 -29.0242 -29.0176 -29.0113 -26.6220 -26.6046 -26.6033 -23.0243
   -22.9911 -22.9712 -22.9348 -22.9203 -22.8812 -22.8671 -22.8490 -22.8226
   -22.8000 -22.7844 -22.7425 -22.7385 -22.7361 -22.7239 -22.7126 -22.6956
   -22.6810  15.7477  16.9637  17.2394  17.3492  17.5410  17.6920  17.8732
    18.0319  18.1135  18.1995  18.2290  18.3435  18.4174  18.4813  18.6264
    18.7087  18.8795  18.9137  19.0004  19.3767  19.3938  19.5625  19.6667
    19.8079  19.8437  19.8726  19.9649  20.0760  20.1429  20.2267  20.2832
    20.3794  20.4156  20.4967  20.5522  20.6278  20.6750  20.7158  20.7793
    20.8283  20.8498  20.9144  20.9541  21.1345  21.1655  21.3261  21.4231
    21.5535  21.6525  21.9409  22.0168  22.0746  22.3321  22.3772  22.5007
    22.5959  22.7359  22.7962  22.8448  22.9149  23.0179  23.1666  23.2493
    23.4618  23.5215  23.5896  23.6814  23.7276  23.7701  23.8115  23.9312
    23.9537  24.1337  24.1791  24.3429  24.6391  25.7315  25.8195  26.1322
    26.6594  28.2510  30.0085  30.2843  30.6456  30.8863  31.1867  31.5713
    32.1259  32.5840  32.9922  33.6281  33.8222  34.0431  34.3654  34.9213
    35.0072  35.5094  35.7159  35.8206  36.0174  36.2252

          k = 0.5456 0.2158-0.4000 ( 27621 PWs)   bands (ev):

   -75.0366 -75.0316 -75.0210 -75.0170 -75.0110 -75.0030 -74.9956 -60.8932
   -54.9927 -54.9808 -54.9672 -54.9555 -54.9525 -54.9409 -43.4464 -43.4393
   -43.4391 -43.4294 -43.4280 -43.4280 -43.4271 -43.4236 -43.4191 -43.4168
   -43.4164 -43.4150 -43.4141 -43.4135 -43.4134 -43.4124 -43.4117 -43.4114
   -43.4111 -43.4099 -43.4051 -43.4048 -43.4041 -43.4036 -43.4033 -43.4032
   -43.4017 -43.3992 -43.3989 -43.3985 -43.3981 -43.3971 -43.3960 -43.3934
   -43.3929 -43.3925 -43.3920 -43.3908 -43.3873 -43.3873 -43.3864 -43.3861
   -43.3837 -43.3823 -43.3821 -43.3811 -43.3753 -43.3745 -43.3710 -29.2898
   -29.2739 -29.2506 -29.2419 -29.2201 -29.1993 -29.1817 -29.1626 -29.1513
   -29.1371 -29.1219 -29.1103 -29.0973 -29.0939 -29.0859 -29.0611 -29.0518
   -29.0374 -29.0329 -29.0195 -29.0107 -26.6220 -26.6046 -26.6033 -23.0241
   -22.9981 -22.9630 -22.9409 -22.9117 -22.8869 -22.8627 -22.8493 -22.8216
   -22.8002 -22.7838 -22.7429 -22.7383 -22.7371 -22.7241 -22.7148 -22.6979
   -22.6788  16.2914  16.5855  17.0681  17.2538  17.5940  17.6938  17.8656
    17.9517  17.9854  18.1391  18.1901  18.2623  18.3947  18.6185  18.7354
    18.8428  18.9273  19.1485  19.1925  19.2426  19.3057  19.3673  19.4914
    19.6206  19.6846  19.7519  19.8275  19.9397  19.9962  20.0285  20.3039
    20.4131  20.4499  20.4795  20.6187  20.7032  20.7741  20.7895  20.8807
    20.9496  21.0049  21.0613  21.1274  21.2231  21.4477  21.5034  21.5168
    21.6532  21.8207  21.9400  22.0488  22.2405  22.2692  22.2931  22.3705
    22.4577  22.6274  22.8218  22.9341  22.9606  22.9944  23.0777  23.1405
    23.2615  23.4550  23.5032  23.5399  23.5722  23.5952  23.6392  23.7965
    23.8299  24.0192  24.0762  24.1767  25.1708  26.4280  26.5254  26.7968
    27.4454  28.0557  28.8987  29.9175  30.5310  30.6479  30.8764  31.4468
    31.8482  31.9644  32.3238  33.2986  33.6160  34.2288  34.4234  34.7053
    35.2309  35.5786  35.9258  36.1716  36.2529  36.4709

          k = 0.4825 0.1660-0.2000 ( 27659 PWs)   bands (ev):

   -75.0367 -75.0316 -75.0215 -75.0170 -75.0097 -75.0036 -74.9958 -60.8932
   -54.9962 -54.9772 -54.9645 -54.9566 -54.9523 -54.9427 -43.4464 -43.4393
   -43.4391 -43.4294 -43.4280 -43.4280 -43.4271 -43.4236 -43.4191 -43.4168
   -43.4164 -43.4150 -43.4141 -43.4135 -43.4134 -43.4124 -43.4117 -43.4114
   -43.4111 -43.4099 -43.4051 -43.4048 -43.4041 -43.4036 -43.4033 -43.4032
   -43.4017 -43.3992 -43.3989 -43.3985 -43.3981 -43.3971 -43.3960 -43.3934
   -43.3929 -43.3925 -43.3920 -43.3908 -43.3873 -43.3873 -43.3864 -43.3861
   -43.3837 -43.3823 -43.3821 -43.3811 -43.3753 -43.3745 -43.3710 -29.2901
   -29.2785 -29.2599 -29.2418 -29.2158 -29.2014 -29.1713 -29.1658 -29.1495
   -29.1370 -29.1187 -29.1047 -29.1012 -29.0842 -29.0778 -29.0601 -29.0560
   -29.0465 -29.0357 -29.0262 -29.0086 -26.6220 -26.6046 -26.6033 -23.0237
   -23.0031 -22.9650 -22.9450 -22.9152 -22.8796 -22.8684 -22.8322 -22.8150
   -22.7991 -22.7744 -22.7498 -22.7441 -22.7373 -22.7287 -22.7178 -22.7006
   -22.6772  15.8629  16.8989  17.2321  17.3409  17.5515  17.7238  17.8731
    17.9157  17.9913  18.0674  18.2137  18.2896  18.4083  18.5960  18.7474
    18.8472  19.0413  19.0907  19.1169  19.1929  19.2474  19.2960  19.4169
    19.5307  19.5775  19.8439  19.9149  19.9548  20.0105  20.1942  20.3413
    20.3819  20.4684  20.5419  20.5756  20.6479  20.6938  20.7668  20.7769
    20.8514  20.9439  21.3022  21.4025  21.5459  21.5922  21.6178  21.6983
    21.7305  21.8187  21.8751  21.9559  22.0109  22.0565  22.0854  22.2997
    22.3263  22.4224  22.4748  22.7894  22.8604  23.0406  23.0991  23.2025
    23.2172  23.5424  23.6432  23.6752  23.7357  23.8008  23.8241  23.8603
    23.9534  23.9972  24.1406  24.2798  25.9341  26.2718  26.3072  26.7786
    27.1295  28.1134  29.0151  29.2339  29.7615  30.0948  30.5281  30.8620
    31.3049  31.7677  32.9876  33.2818  33.8077  34.2388  34.6291  35.0855
    35.3959  35.7942  36.1475  36.2331  36.3572  36.5791

          k = 0.4194 0.3316 0.0000 ( 27654 PWs)   bands (ev):

   -75.0363 -75.0319 -75.0223 -75.0166 -75.0087 -75.0042 -74.9958 -60.8932
   -54.9982 -54.9751 -54.9606 -54.9593 -54.9524 -54.9440 -43.4464 -43.4393
   -43.4391 -43.4294 -43.4280 -43.4280 -43.4271 -43.4236 -43.4191 -43.4168
   -43.4164 -43.4150 -43.4141 -43.4135 -43.4134 -43.4125 -43.4117 -43.4114
   -43.4111 -43.4099 -43.4051 -43.4048 -43.4041 -43.4036 -43.4033 -43.4032
   -43.4017 -43.3992 -43.3989 -43.3985 -43.3981 -43.3971 -43.3960 -43.3934
   -43.3929 -43.3925 -43.3920 -43.3908 -43.3873 -43.3873 -43.3864 -43.3861
   -43.3837 -43.3823 -43.3821 -43.3811 -43.3753 -43.3745 -43.3710 -29.2974
   -29.2747 -29.2597 -29.2354 -29.2087 -29.1986 -29.1792 -29.1594 -29.1550
   -29.1410 -29.1204 -29.1117 -29.1015 -29.0870 -29.0772 -29.0613 -29.0500
   -29.0416 -29.0346 -29.0242 -29.0125 -26.6220 -26.6045 -26.6033 -23.0235
   -23.0021 -22.9699 -22.9444 -22.9211 -22.8777 -22.8685 -22.8259 -22.8123
   -22.7857 -22.7802 -22.7554 -22.7445 -22.7397 -22.7298 -22.7174 -22.6995
   -22.6788  15.8787  16.8656  17.2414  17.3128  17.4598  17.6551  17.7426
    17.9171  18.1452  18.2545  18.2776  18.3611  18.5224  18.7031  18.7634
    18.8687  18.9512  19.0318  19.1559  19.2101  19.2555  19.4100  19.4518
    19.5376  19.6769  19.8768  19.9399  20.0208  20.0995  20.1617  20.2809
    20.3513  20.3983  20.4488  20.5277  20.5517  20.5920  20.6364  20.6689
    20.7362  20.8479  20.9764  21.0231  21.1303  21.2255  21.3984  21.6763
    21.7261  21.8410  21.9512  22.0977  22.1773  22.2644  22.3502  22.4426
    22.4775  22.6325  22.8209  22.9208  22.9615  23.2829  23.3554  23.3922
    23.4339  23.5137  23.6801  23.7475  23.7843  23.8291  23.8619  23.8899
    23.9467  24.0595  24.1889  24.4576  24.6507  24.8838  25.9883  27.3226
    27.9257  28.2542  28.9129  29.1927  29.7428  30.0303  30.7692  31.2120
    31.9251  32.2194  32.7264  33.4207  33.9799  34.2620  34.4355  34.4985
    35.3416  35.9180  35.9399  36.2322  36.4413  36.5705

          k = 0.3563 0.2818 0.2000 ( 27623 PWs)   bands (ev):

   -75.0364 -75.0320 -75.0218 -75.0166 -75.0098 -75.0036 -74.9957 -60.8932
   -54.9970 -54.9757 -54.9648 -54.9567 -54.9527 -54.9428 -43.4464 -43.4393
   -43.4391 -43.4294 -43.4280 -43.4280 -43.4271 -43.4236 -43.4191 -43.4168
   -43.4164 -43.4150 -43.4141 -43.4135 -43.4134 -43.4125 -43.4117 -43.4114
   -43.4111 -43.4099 -43.4051 -43.4048 -43.4041 -43.4036 -43.4033 -43.4032
   -43.4017 -43.3992 -43.3989 -43.3985 -43.3981 -43.3971 -43.3960 -43.3934
   -43.3929 -43.3925 -43.3920 -43.3908 -43.3873 -43.3873 -43.3864 -43.3861
   -43.3837 -43.3823 -43.3821 -43.3811 -43.3753 -43.3745 -43.3710 -29.2932
   -29.2717 -29.2578 -29.2306 -29.2146 -29.1951 -29.1759 -29.1704 -29.1564
   -29.1407 -29.1282 -29.1092 -29.1015 -29.0927 -29.0838 -29.0652 -29.0495
   -29.0364 -29.0271 -29.0210 -29.0098 -26.6220 -26.6045 -26.6033 -23.0239
   -22.9928 -22.9760 -22.9383 -22.9248 -22.8793 -22.8655 -22.8336 -22.8194
   -22.7981 -22.7773 -22.7481 -22.7436 -22.7358 -22.7264 -22.7164 -22.6960
   -22.6809  15.7405  17.0794  17.1236  17.3705  17.5303  17.7295  17.8570
    17.9753  18.1326  18.1729  18.2272  18.2974  18.4641  18.5396  18.6197
    18.7033  18.8592  18.9614  18.9895  19.3500  19.4007  19.5434  19.6354
    19.7572  19.8234  19.9163  20.0189  20.1053  20.1659  20.2843  20.3155
    20.3879  20.4050  20.4710  20.5419  20.5784  20.6559  20.6930  20.7658
    20.8206  20.8821  20.8876  21.0070  21.0724  21.1509  21.3462  21.3825
    21.5735  21.7084  21.9588  22.0250  22.1012  22.2646  22.4193  22.5208
    22.6215  22.7213  22.7890  22.8107  22.8869  23.0260  23.1734  23.2765
    23.4023  23.4813  23.6380  23.6567  23.6915  23.8085  23.8463  23.8948
    23.9935  24.1137  24.1644  24.3487  24.6338  25.7455  25.7958  26.1481
    26.6834  28.2616  30.0164  30.3183  30.7548  30.8616  31.2082  31.3843
    32.0559  32.6600  32.9684  33.6483  33.8254  34.1622  34.5075  34.6664
    35.0000  35.5279  35.7279  35.8178  36.0619  36.1877

          k = 0.2932 0.2320 0.4000 ( 27623 PWs)   bands (ev):

   -75.0363 -75.0320 -75.0214 -75.0166 -75.0112 -75.0029 -74.9956 -60.8932
   -54.9935 -54.9795 -54.9675 -54.9554 -54.9527 -54.9410 -43.4464 -43.4393
   -43.4391 -43.4294 -43.4280 -43.4280 -43.4271 -43.4236 -43.4191 -43.4168
   -43.4164 -43.4150 -43.4141 -43.4135 -43.4134 -43.4124 -43.4117 -43.4114
   -43.4111 -43.4099 -43.4051 -43.4048 -43.4041 -43.4036 -43.4033 -43.4032
   -43.4017 -43.3992 -43.3989 -43.3985 -43.3981 -43.3971 -43.3960 -43.3934
   -43.3929 -43.3925 -43.3920 -43.3908 -43.3873 -43.3873 -43.3864 -43.3861
   -43.3837 -43.3823 -43.3821 -43.3811 -43.3753 -43.3745 -43.3710 -29.2879
   -29.2667 -29.2569 -29.2326 -29.2167 -29.1909 -29.1825 -29.1744 -29.1510
   -29.1449 -29.1309 -29.1163 -29.1005 -29.0914 -29.0861 -29.0623 -29.0546
   -29.0354 -29.0281 -29.0154 -29.0053 -26.6220 -26.6046 -26.6033 -23.0243
   -22.9913 -22.9712 -22.9351 -22.9209 -22.8808 -22.8670 -22.8492 -22.8224
   -22.8005 -22.7840 -22.7426 -22.7384 -22.7361 -22.7233 -22.7126 -22.6956
   -22.6810  15.9357  16.8299  17.2891  17.4269  17.5676  17.8379  17.9823
    18.0197  18.0395  18.1670  18.1943  18.2957  18.3185  18.3761  18.3951
    18.4716  18.5488  18.8282  18.8748  18.9246  19.7927  19.8352  19.9575
    20.0134  20.0257  20.1511  20.1936  20.3167  20.3571  20.4043  20.4568
    20.4975  20.5331  20.5706  20.6296  20.6457  20.6974  20.7099  20.7442
    20.7929  20.8448  20.8978  20.9580  21.0141  21.1119  21.1334  21.1785
    21.3490  21.3853  21.4121  22.1737  22.2217  22.2813  22.3490  22.3658
    22.4323  22.4531  22.5474  22.7834  22.8629  23.0571  23.0695  23.1082
    23.3300  23.3662  23.3909  23.7968  23.8818  23.8973  24.1070  24.1284
    24.1633  24.3791  24.4192  24.4961  24.6453  24.6756  24.7231  27.4933
    27.5922  27.7468  30.2282  30.2819  30.3543  31.4610  31.8359  32.0832
    33.1733  33.3625  33.6354  33.7602  33.9051  34.1346  34.3248  34.7643
    34.8908  35.2174  35.3409  35.4186  35.4708  35.6008

          k = 0.5456 0.4312-0.4000 ( 27607 PWs)   bands (ev):

   -75.0361 -75.0319 -75.0218 -75.0166 -75.0110 -75.0029 -74.9956 -60.8932
   -54.9927 -54.9808 -54.9672 -54.9555 -54.9525 -54.9409 -43.4464 -43.4393
   -43.4391 -43.4294 -43.4280 -43.4280 -43.4271 -43.4236 -43.4191 -43.4168
   -43.4164 -43.4150 -43.4141 -43.4135 -43.4134 -43.4124 -43.4117 -43.4114
   -43.4111 -43.4099 -43.4051 -43.4048 -43.4041 -43.4036 -43.4033 -43.4032
   -43.4017 -43.3992 -43.3989 -43.3985 -43.3981 -43.3971 -43.3960 -43.3934
   -43.3929 -43.3925 -43.3920 -43.3908 -43.3873 -43.3873 -43.3864 -43.3861
   -43.3837 -43.3823 -43.3821 -43.3811 -43.3753 -43.3745 -43.3710 -29.2883
   -29.2724 -29.2536 -29.2328 -29.2188 -29.1975 -29.1815 -29.1687 -29.1547
   -29.1386 -29.1251 -29.1112 -29.0989 -29.0944 -29.0868 -29.0613 -29.0545
   -29.0374 -29.0295 -29.0193 -29.0054 -26.6221 -26.6046 -26.6033 -23.0242
   -22.9985 -22.9631 -22.9412 -22.9118 -22.8872 -22.8628 -22.8490 -22.8215
   -22.8005 -22.7836 -22.7428 -22.7382 -22.7369 -22.7234 -22.7150 -22.6979
   -22.6788  16.4150  16.6675  16.9389  17.4048  17.5519  17.7451  17.8499
    17.8907  17.9938  18.1219  18.1736  18.2769  18.3283  18.5023  18.5883
    18.6502  18.7024  18.9894  19.0337  19.0814  19.4822  19.6801  19.7298
    19.7971  19.8732  19.9474  20.0005  20.0695  20.1089  20.2692  20.3131
    20.4154  20.5308  20.5662  20.6197  20.6978  20.7234  20.7902  20.8313
    20.8794  20.9038  21.0035  21.0910  21.1697  21.3563  21.4207  21.4764
    21.6318  21.7101  21.9739  22.0640  22.1459  22.1956  22.2521  22.3283
    22.4375  22.5141  22.5609  22.7561  22.8996  22.9694  23.0272  23.0541
    23.1783  23.2637  23.3176  23.5165  23.5711  23.6885  23.8012  23.9755
    24.1524  24.1941  24.2083  24.2768  24.7585  25.5857  25.9667  27.6617
    28.2131  28.4577  28.9048  29.3640  30.3458  31.6085  31.7145  31.9772
    32.3338  32.8555  33.3718  33.4443  33.7728  34.0873  34.2903  34.4747
    34.6284  34.7134  34.9670  35.7649  36.0419  36.0954

          k = 0.4825 0.3814-0.2000 ( 27639 PWs)   bands (ev):

   -75.0361 -75.0319 -75.0224 -75.0166 -75.0096 -75.0036 -74.9957 -60.8932
   -54.9962 -54.9772 -54.9645 -54.9566 -54.9523 -54.9427 -43.4464 -43.4393
   -43.4391 -43.4294 -43.4280 -43.4280 -43.4271 -43.4236 -43.4191 -43.4168
   -43.4164 -43.4150 -43.4141 -43.4135 -43.4134 -43.4125 -43.4117 -43.4114
   -43.4111 -43.4099 -43.4051 -43.4048 -43.4041 -43.4036 -43.4033 -43.4032
   -43.4017 -43.3992 -43.3989 -43.3985 -43.3981 -43.3971 -43.3960 -43.3934
   -43.3929 -43.3925 -43.3920 -43.3908 -43.3873 -43.3873 -43.3864 -43.3861
   -43.3837 -43.3823 -43.3821 -43.3811 -43.3753 -43.3745 -43.3710 -29.2949
   -29.2753 -29.2579 -29.2316 -29.2164 -29.2012 -29.1777 -29.1640 -29.1515
   -29.1385 -29.1211 -29.1052 -29.1026 -29.0886 -29.0833 -29.0607 -29.0506
   -29.0400 -29.0321 -29.0290 -29.0089 -26.6220 -26.6045 -26.6033 -23.0237
   -23.0035 -22.9649 -22.9449 -22.9154 -22.8797 -22.8686 -22.8319 -22.8150
   -22.7994 -22.7742 -22.7493 -22.7442 -22.7369 -22.7291 -22.7179 -22.7004
   -22.6773  16.2686  16.7418  17.0558  17.3315  17.4777  17.6425  17.7626
    17.8492  18.0156  18.1237  18.2451  18.2837  18.4947  18.6303  18.7782
    18.8404  18.9986  19.1456  19.2160  19.3234  19.3536  19.4074  19.4328
    19.4788  19.5845  19.6390  19.8014  19.8772  20.0270  20.1779  20.2702
    20.3245  20.4741  20.5320  20.5623  20.6283  20.6622  20.7452  20.8524
    20.8994  21.0136  21.1733  21.2189  21.2728  21.3062  21.4392  21.6626
    21.7040  21.8676  21.9804  22.0600  22.0947  22.1173  22.2084  22.4523
    22.5486  22.6728  22.7142  22.7613  22.8395  23.0538  23.2483  23.2959
    23.3633  23.4465  23.5078  23.5848  23.6819  23.7187  23.8016  23.8199
    23.9138  23.9498  24.0383  24.2299  24.7336  26.4142  26.7327  27.1455
    27.6131  28.5034  28.7661  28.9578  29.9223  30.3780  31.0377  31.4294
    31.8274  32.2290  32.8898  33.1829  33.5949  34.1164  34.2798  34.9314
    35.2767  35.3336  35.4601  35.7259  36.1673  36.1976

          k = 0.4194-0.5299 0.0000 ( 27648 PWs)   bands (ev):

   -75.0362 -75.0321 -75.0223 -75.0166 -75.0088 -75.0042 -74.9958 -60.8932
   -54.9982 -54.9751 -54.9606 -54.9593 -54.9524 -54.9440 -43.4464 -43.4393
   -43.4391 -43.4294 -43.4280 -43.4280 -43.4271 -43.4236 -43.4191 -43.4168
   -43.4164 -43.4150 -43.4141 -43.4135 -43.4134 -43.4125 -43.4117 -43.4114
   -43.4111 -43.4099 -43.4051 -43.4048 -43.4041 -43.4036 -43.4033 -43.4032
   -43.4017 -43.3992 -43.3989 -43.3985 -43.3981 -43.3971 -43.3960 -43.3934
   -43.3929 -43.3925 -43.3920 -43.3908 -43.3873 -43.3873 -43.3864 -43.3861
   -43.3837 -43.3823 -43.3821 -43.3811 -43.3753 -43.3745 -43.3710 -29.2941
   -29.2767 -29.2575 -29.2421 -29.2085 -29.2010 -29.1766 -29.1603 -29.1512
   -29.1405 -29.1199 -29.1121 -29.1024 -29.0866 -29.0750 -29.0618 -29.0500
   -29.0432 -29.0353 -29.0236 -29.0125 -26.6220 -26.6045 -26.6033 -23.0234
   -23.0021 -22.9697 -22.9446 -22.9207 -22.8778 -22.8687 -22.8253 -22.8126
   -22.7858 -22.7802 -22.7552 -22.7449 -22.7398 -22.7297 -22.7177 -22.6994
   -22.6788  16.1710  16.6282  17.1231  17.2682  17.4502  17.7072  17.8064
    17.9349  18.1011  18.2358  18.3155  18.3528  18.5038  18.5768  18.5952
    18.7837  18.8056  19.1272  19.1834  19.2717  19.2913  19.3570  19.4946
    19.6076  19.6855  19.8222  19.8912  20.0448  20.0746  20.1435  20.2962
    20.3452  20.4299  20.4972  20.5672  20.6521  20.7250  20.7571  20.7731
    20.8705  20.9442  21.0129  21.1259  21.2806  21.4166  21.4713  21.5136
    21.6016  21.7116  21.7785  21.8612  22.0455  22.1018  22.2449  22.5290
    22.6041  22.7741  22.8633  22.9053  22.9909  23.0516  23.1209  23.3097
    23.4605  23.5571  23.6384  23.6840  23.6957  23.7651  23.8112  23.8962
    23.9188  24.2103  24.3270  24.5756  24.6608  25.1313  26.4366  26.5776
    28.4386  28.6643  29.0691  29.2374  29.8082  30.2443  30.6590  30.8285
    31.1845  31.6512  32.1702  33.6571  34.0113  34.4719  34.7919  35.0375
    35.2790  35.5062  35.6974  35.9445  36.1980  36.3930

          k = 0.3563-0.5797 0.2000 ( 27629 PWs)   bands (ev):

   -75.0361 -75.0323 -75.0217 -75.0166 -75.0099 -75.0036 -74.9957 -60.8932
   -54.9970 -54.9757 -54.9648 -54.9567 -54.9527 -54.9428 -43.4464 -43.4393
   -43.4391 -43.4294 -43.4280 -43.4280 -43.4271 -43.4236 -43.4191 -43.4168
   -43.4164 -43.4150 -43.4141 -43.4135 -43.4134 -43.4125 -43.4117 -43.4114
   -43.4111 -43.4099 -43.4051 -43.4048 -43.4041 -43.4036 -43.4033 -43.4032
   -43.4017 -43.3992 -43.3989 -43.3985 -43.3981 -43.3971 -43.3960 -43.3934
   -43.3929 -43.3925 -43.3920 -43.3908 -43.3873 -43.3873 -43.3864 -43.3861
   -43.3837 -43.3823 -43.3821 -43.3811 -43.3753 -43.3745 -43.3710 -29.2875
   -29.2790 -29.2536 -29.2384 -29.2182 -29.1994 -29.1763 -29.1643 -29.1463
   -29.1413 -29.1264 -29.1089 -29.1003 -29.0934 -29.0832 -29.0647 -29.0505
   -29.0373 -29.0313 -29.0222 -29.0085 -26.6220 -26.6046 -26.6033 -23.0238
   -22.9925 -22.9754 -22.9382 -22.9248 -22.8795 -22.8654 -22.8337 -22.8197
   -22.7981 -22.7775 -22.7479 -22.7440 -22.7360 -22.7264 -22.7165 -22.6959
   -22.6809  16.2164  16.6920  17.1608  17.3242  17.5004  17.6294  17.7096
    17.8873  17.9393  18.0460  18.3190  18.3684  18.5386  18.6407  18.7672
    18.8408  18.9077  19.0077  19.0383  19.1298  19.2329  19.3859  19.5794
    19.6278  19.8762  19.9827  20.0464  20.0743  20.1523  20.2110  20.2368
    20.2550  20.3119  20.4203  20.6018  20.6573  20.6988  20.7303  20.8257
    20.9058  20.9670  21.0113  21.0498  21.1948  21.3309  21.5096  21.5716
    21.8399  21.8881  21.9462  22.0414  22.1062  22.1845  22.2410  22.3045
    22.3785  22.5454  22.7447  22.8272  22.8880  22.9651  23.0291  23.0710
    23.3119  23.5456  23.5934  23.6633  23.6805  23.7020  23.8725  23.9474
    23.9670  24.0922  24.1263  24.2092  25.2058  25.7847  25.9011  27.1182
    27.7956  28.5967  28.8789  29.4617  30.2590  30.7284  31.1770  31.3384
    31.5198  32.1397  32.9777  33.4039  33.4821  33.9426  34.2033  34.5170
    35.0501  35.7384  35.9977  36.1834  36.2912  36.3980

          k = 0.2932-0.6295 0.4000 ( 27613 PWs)   bands (ev):

   -75.0362 -75.0321 -75.0213 -75.0166 -75.0112 -75.0029 -74.9956 -60.8932
   -54.9935 -54.9795 -54.9675 -54.9554 -54.9527 -54.9410 -43.4464 -43.4393
   -43.4391 -43.4294 -43.4280 -43.4280 -43.4271 -43.4236 -43.4191 -43.4168
   -43.4164 -43.4150 -43.4141 -43.4135 -43.4134 -43.4124 -43.4117 -43.4114
   -43.4111 -43.4099 -43.4051 -43.4048 -43.4041 -43.4036 -43.4033 -43.4032
   -43.4017 -43.3992 -43.3989 -43.3985 -43.3981 -43.3971 -43.3960 -43.3934
   -43.3929 -43.3925 -43.3920 -43.3908 -43.3873 -43.3873 -43.3864 -43.3861
   -43.3837 -43.3823 -43.3821 -43.3811 -43.3753 -43.3745 -43.3710 -29.2896
   -29.2685 -29.2544 -29.2311 -29.2203 -29.1939 -29.1818 -29.1707 -29.1487
   -29.1457 -29.1306 -29.1144 -29.0996 -29.0924 -29.0859 -29.0617 -29.0546
   -29.0370 -29.0298 -29.0151 -29.0051 -26.6220 -26.6046 -26.6033 -23.0242
   -22.9910 -22.9706 -22.9351 -22.9212 -22.8809 -22.8669 -22.8493 -22.8224
   -22.8005 -22.7840 -22.7431 -22.7386 -22.7361 -22.7235 -22.7124 -22.6955
   -22.6809  16.3331  16.7389  17.0144  17.3633  17.5287  17.7941  17.8469
    17.9308  17.9503  18.0695  18.1906  18.3179  18.3580  18.4141  18.5798
    18.5925  18.7548  18.9422  19.0533  19.1155  19.4851  19.6754  19.7211
    19.8443  19.9071  19.9649  20.0129  20.0434  20.0951  20.2589  20.3271
    20.3844  20.5022  20.5714  20.6214  20.6441  20.7350  20.7577  20.7953
    20.9072  20.9243  21.0739  21.1190  21.1555  21.3636  21.4221  21.4572
    21.6381  21.7001  21.9643  22.0467  22.1319  22.1899  22.3416  22.3998
    22.4615  22.4937  22.5388  22.6731  22.8578  22.9372  23.0089  23.0731
    23.1890  23.2626  23.3841  23.5044  23.5455  23.6544  23.8200  23.9973
    24.1510  24.1917  24.2302  24.2567  24.7846  25.5735  25.9625  27.6454
    28.2739  28.4084  28.8883  29.3647  30.3807  31.6044  31.8386  32.1443
    32.2851  32.7541  32.9973  33.5283  33.7247  34.0690  34.3156  34.4365
    34.6915  34.8621  35.0035  35.7829  36.0360  36.1536

          k = 0.5456-0.4303-0.4000 ( 27610 PWs)   bands (ev):

   -75.0362 -75.0318 -75.0218 -75.0166 -75.0110 -75.0029 -74.9956 -60.8932
   -54.9927 -54.9808 -54.9672 -54.9555 -54.9525 -54.9409 -43.4464 -43.4393
   -43.4391 -43.4294 -43.4280 -43.4280 -43.4271 -43.4236 -43.4191 -43.4168
   -43.4164 -43.4150 -43.4141 -43.4135 -43.4134 -43.4124 -43.4117 -43.4114
   -43.4111 -43.4099 -43.4051 -43.4048 -43.4041 -43.4036 -43.4033 -43.4032
   -43.4017 -43.3992 -43.3989 -43.3985 -43.3981 -43.3971 -43.3960 -43.3934
   -43.3929 -43.3925 -43.3920 -43.3908 -43.3873 -43.3873 -43.3864 -43.3861
   -43.3837 -43.3823 -43.3821 -43.3811 -43.3753 -43.3745 -43.3710 -29.2945
   -29.2650 -29.2561 -29.2280 -29.2145 -29.1942 -29.1829 -29.1755 -29.1580
   -29.1386 -29.1286 -29.1117 -29.1004 -29.0921 -29.0858 -29.0630 -29.0550
   -29.0335 -29.0283 -29.0199 -29.0053 -26.6220 -26.6046 -26.6033 -23.0242
   -22.9984 -22.9633 -22.9413 -22.9120 -22.8873 -22.8627 -22.8488 -22.8214
   -22.8002 -22.7837 -22.7434 -22.7381 -22.7362 -22.7235 -22.7150 -22.6981
   -22.6787  16.3336  16.7174  17.1456  17.2447  17.4992  17.7347  17.8607
    17.9424  17.9962  18.0868  18.2451  18.2931  18.3530  18.4539  18.5403
    18.5780  18.7611  18.9818  19.0321  19.0981  19.4940  19.6727  19.7211
    19.8335  19.9317  19.9429  19.9831  20.0197  20.1108  20.2152  20.3163
    20.4206  20.5356  20.5567  20.6011  20.6540  20.7391  20.8171  20.8699
    20.8842  20.9062  21.0394  21.0887  21.1611  21.3659  21.4101  21.4793
    21.6142  21.7235  21.9449  22.0531  22.1343  22.2106  22.2511  22.3772
    22.4377  22.5067  22.5539  22.7594  22.8995  22.9667  23.0237  23.1028
    23.1742  23.2151  23.3227  23.5005  23.5365  23.7166  23.7961  24.0013
    24.1420  24.1801  24.2312  24.2747  24.7641  25.6065  25.9353  27.6582
    28.1999  28.4476  28.9206  29.3446  30.4346  31.4714  31.8918  32.0345
    32.2574  32.7820  33.2406  33.4029  33.8397  34.0581  34.3703  34.4169
    34.7051  34.8002  35.0004  35.8198  35.9663  36.0834

          k = 0.4825-0.4801-0.2000 ( 27623 PWs)   bands (ev):

   -75.0363 -75.0317 -75.0224 -75.0166 -75.0096 -75.0036 -74.9958 -60.8932
   -54.9962 -54.9772 -54.9645 -54.9566 -54.9523 -54.9427 -43.4464 -43.4393
   -43.4391 -43.4294 -43.4280 -43.4280 -43.4271 -43.4236 -43.4191 -43.4168
   -43.4164 -43.4150 -43.4141 -43.4135 -43.4134 -43.4125 -43.4117 -43.4114
   -43.4111 -43.4099 -43.4051 -43.4048 -43.4041 -43.4036 -43.4033 -43.4032
   -43.4017 -43.3992 -43.3989 -43.3985 -43.3981 -43.3971 -43.3960 -43.3934
   -43.3929 -43.3925 -43.3920 -43.3908 -43.3873 -43.3873 -43.3864 -43.3861
   -43.3837 -43.3823 -43.3821 -43.3811 -43.3753 -43.3745 -43.3710 -29.2971
   -29.2707 -29.2574 -29.2367 -29.2076 -29.1969 -29.1771 -29.1690 -29.1608
   -29.1374 -29.1252 -29.1047 -29.0996 -29.0902 -29.0844 -29.0606 -29.0504
   -29.0387 -29.0329 -29.0234 -29.0102 -26.6220 -26.6045 -26.6033 -23.0237
   -23.0038 -22.9650 -22.9452 -22.9152 -22.8799 -22.8687 -22.8311 -22.8153
   -22.7992 -22.7740 -22.7492 -22.7448 -22.7365 -22.7292 -22.7179 -22.7005
   -22.6772  16.1857  16.7673  17.1095  17.2199  17.4919  17.7004  17.8352
    17.9154  18.0307  18.1608  18.1789  18.2563  18.4952  18.5967  18.6811
    18.8558  18.9282  19.1189  19.2265  19.2486  19.3052  19.3887  19.4766
    19.5981  19.6563  19.7579  19.7917  19.9810  20.0164  20.0350  20.2688
    20.4133  20.4287  20.4963  20.5980  20.6890  20.7518  20.8022  20.8891
    21.0079  21.0315  21.1186  21.1421  21.1752  21.3790  21.4347  21.5617
    21.6417  21.8834  21.9211  22.1167  22.2045  22.2547  22.3231  22.3692
    22.4492  22.5683  22.8855  22.9466  22.9851  23.0082  23.0275  23.1501
    23.1997  23.4723  23.5188  23.5567  23.5800  23.5888  23.6252  23.7890
    23.8174  24.0431  24.0669  24.1581  25.1670  26.4244  26.5015  26.8236
    27.4196  28.0596  28.9192  30.1449  30.5001  30.6588  30.8071  31.2477
    31.7927  31.9837  32.4443  33.1749  33.7231  34.2047  34.5579  34.6439
    35.3103  35.5347  35.8250  36.1731  36.2697  36.5066

          k = 0.4194-0.3145 0.0000 ( 27645 PWs)   bands (ev):

   -75.0369 -75.0316 -75.0214 -75.0170 -75.0088 -75.0042 -74.9959 -60.8932
   -54.9982 -54.9751 -54.9606 -54.9593 -54.9524 -54.9440 -43.4464 -43.4393
   -43.4391 -43.4294 -43.4280 -43.4280 -43.4271 -43.4236 -43.4191 -43.4168
   -43.4164 -43.4150 -43.4141 -43.4135 -43.4134 -43.4124 -43.4117 -43.4114
   -43.4111 -43.4099 -43.4051 -43.4048 -43.4041 -43.4036 -43.4033 -43.4032
   -43.4017 -43.3992 -43.3989 -43.3985 -43.3981 -43.3971 -43.3960 -43.3934
   -43.3929 -43.3925 -43.3920 -43.3908 -43.3873 -43.3873 -43.3864 -43.3861
   -43.3837 -43.3823 -43.3821 -43.3811 -43.3753 -43.3745 -43.3710 -29.2893
   -29.2782 -29.2591 -29.2506 -29.2087 -29.1954 -29.1785 -29.1630 -29.1522
   -29.1350 -29.1183 -29.1125 -29.0991 -29.0827 -29.0708 -29.0648 -29.0534
   -29.0498 -29.0403 -29.0196 -29.0096 -26.6220 -26.6045 -26.6033 -23.0235
   -23.0019 -22.9699 -22.9451 -22.9199 -22.8778 -22.8687 -22.8250 -22.8124
   -22.7856 -22.7806 -22.7555 -22.7454 -22.7401 -22.7289 -22.7176 -22.6995
   -22.6786  15.7184  16.6668  17.2759  17.4872  17.7137  17.8315  17.9326
    18.0216  18.0949  18.1346  18.2540  18.3020  18.4058  18.4762  18.5236
    18.6947  18.7259  18.7847  19.0195  19.1765  19.3836  19.4732  19.5564
    19.6046  19.6515  19.8778  19.9142  19.9422  20.1694  20.2593  20.3693
    20.5380  20.6094  20.6924  20.7713  20.8075  20.8437  20.9039  20.9525
    20.9830  21.0499  21.1482  21.2174  21.2476  21.3071  21.4399  21.4892
    21.5446  21.6208  21.6957  21.8825  22.0427  22.0991  22.2789  22.3153
    22.3296  22.5275  22.6032  22.6691  22.8069  22.8328  23.1407  23.1967
    23.3571  23.4444  23.4819  23.5983  23.6355  23.7559  23.8039  23.8520
    23.9331  24.2030  24.7576  25.3388  25.4228  25.6649  25.9996  26.1078
    27.5560  28.0879  28.6512  29.4074  29.7569  30.1257  30.5833  31.1543
    31.4231  32.1164  32.4824  32.9304  33.7891  34.0221  34.4027  34.7357
    35.3360  35.6806  35.8618  36.5700  36.8424  37.4461

          k = 0.3563-0.3643 0.2000 ( 27653 PWs)   bands (ev):

   -75.0368 -75.0318 -75.0209 -75.0170 -75.0100 -75.0037 -74.9958 -60.8932
   -54.9970 -54.9757 -54.9648 -54.9567 -54.9527 -54.9428 -43.4464 -43.4393
   -43.4391 -43.4294 -43.4280 -43.4280 -43.4271 -43.4236 -43.4191 -43.4168
   -43.4164 -43.4150 -43.4141 -43.4135 -43.4134 -43.4124 -43.4117 -43.4114
   -43.4111 -43.4099 -43.4051 -43.4048 -43.4041 -43.4036 -43.4033 -43.4032
   -43.4017 -43.3992 -43.3989 -43.3985 -43.3981 -43.3971 -43.3960 -43.3934
   -43.3929 -43.3925 -43.3920 -43.3908 -43.3873 -43.3873 -43.3864 -43.3861
   -43.3837 -43.3823 -43.3821 -43.3811 -43.3753 -43.3745 -43.3710 -29.2914
   -29.2773 -29.2505 -29.2473 -29.2134 -29.2004 -29.1731 -29.1679 -29.1487
   -29.1359 -29.1246 -29.1082 -29.1009 -29.0900 -29.0780 -29.0635 -29.0562
   -29.0433 -29.0299 -29.0223 -29.0080 -26.6220 -26.6046 -26.6033 -23.0238
   -22.9921 -22.9755 -22.9384 -22.9239 -22.8800 -22.8655 -22.8333 -22.8198
   -22.7979 -22.7779 -22.7478 -22.7444 -22.7363 -22.7265 -22.7163 -22.6959
   -22.6810  15.8590  16.8622  17.2100  17.3956  17.5839  17.7111  17.8411
    17.9141  18.0320  18.0747  18.2119  18.2944  18.4635  18.6550  18.6717
    18.8072  18.9120  18.9795  19.0842  19.2662  19.3039  19.3283  19.4552
    19.6129  19.6508  19.8491  19.8908  19.9847  20.0944  20.1658  20.2812
    20.3337  20.4225  20.5070  20.6355  20.6943  20.7326  20.7825  20.8538
    20.9318  20.9863  21.1071  21.2446  21.3220  21.5268  21.6036  21.6841
    21.7200  21.7735  21.8618  22.0091  22.0399  22.1418  22.2438  22.2898
    22.4187  22.4627  22.5470  22.7392  22.8145  23.0283  23.0774  23.2122
    23.2989  23.3802  23.4741  23.5107  23.6205  23.7226  23.7928  23.9321
    24.0617  24.1884  24.3465  24.7159  25.1172  26.5991  26.8019  26.9024
    27.1177  28.0111  28.3356  28.8166  29.3695  30.3630  31.0299  31.2886
    31.8497  32.4501  32.7800  33.1331  33.2986  33.7499  34.4048  34.5900
    34.9193  35.8803  36.0541  36.3257  36.4130  37.1642

          k = 0.2932-0.4141 0.4000 ( 27637 PWs)   bands (ev):

   -75.0368 -75.0316 -75.0206 -75.0169 -75.0113 -75.0030 -74.9956 -60.8932
   -54.9936 -54.9795 -54.9675 -54.9554 -54.9527 -54.9410 -43.4464 -43.4393
   -43.4391 -43.4294 -43.4280 -43.4280 -43.4271 -43.4236 -43.4191 -43.4168
   -43.4164 -43.4150 -43.4141 -43.4135 -43.4134 -43.4124 -43.4117 -43.4114
   -43.4111 -43.4099 -43.4051 -43.4048 -43.4041 -43.4036 -43.4033 -43.4032
   -43.4017 -43.3992 -43.3989 -43.3985 -43.3981 -43.3971 -43.3960 -43.3934
   -43.3929 -43.3925 -43.3920 -43.3908 -43.3873 -43.3873 -43.3864 -43.3861
   -43.3837 -43.3823 -43.3821 -43.3811 -43.3753 -43.3745 -43.3710 -29.2970
   -29.2681 -29.2504 -29.2330 -29.2205 -29.1970 -29.1813 -29.1651 -29.1542
   -29.1394 -29.1299 -29.1118 -29.0985 -29.0925 -29.0838 -29.0626 -29.0514
   -29.0358 -29.0327 -29.0156 -29.0100 -26.6220 -26.6046 -26.6033 -23.0240
   -22.9906 -22.9703 -22.9348 -22.9209 -22.8814 -22.8669 -22.8492 -22.8226
   -22.8001 -22.7845 -22.7433 -22.7387 -22.7361 -22.7243 -22.7122 -22.6955
   -22.6810  16.2033  16.8660  17.1084  17.2050  17.4679  17.6414  17.7729
    17.9575  18.0064  18.1050  18.1688  18.3141  18.5369  18.5507  18.7834
    18.8757  18.9791  19.1169  19.2665  19.3065  19.3313  19.3850  19.4167
    19.5038  19.5758  19.7060  19.7936  19.8859  20.0429  20.1316  20.2170
    20.2995  20.4671  20.5364  20.5603  20.6344  20.6599  20.7965  20.8447
    20.8997  21.0128  21.2054  21.2388  21.2902  21.3266  21.4675  21.6240
    21.7290  21.8316  21.9086  22.0310  22.0855  22.1961  22.2933  22.4141
    22.5550  22.6347  22.6561  22.8074  22.8999  23.0113  23.2127  23.2947
    23.3470  23.4503  23.5143  23.5663  23.6636  23.7135  23.7769  23.8229
    23.9344  23.9728  24.0531  24.2368  24.7554  26.4233  26.7756  27.1384
    27.5633  28.4753  28.6649  29.0108  29.9935  30.6997  30.8300  31.1845
    31.8432  32.5378  32.8305  33.1645  33.4154  33.9755  34.4580  34.8357
    35.2584  35.3905  35.5639  35.7522  36.1536  36.2537

          k = 0.5456-0.2149-0.4000 ( 27628 PWs)   bands (ev):

   -75.0368 -75.0314 -75.0210 -75.0170 -75.0110 -75.0030 -74.9956 -60.8932
   -54.9927 -54.9808 -54.9672 -54.9555 -54.9525 -54.9409 -43.4464 -43.4393
   -43.4391 -43.4294 -43.4280 -43.4280 -43.4271 -43.4236 -43.4191 -43.4168
   -43.4164 -43.4150 -43.4141 -43.4135 -43.4134 -43.4124 -43.4117 -43.4114
   -43.4111 -43.4099 -43.4051 -43.4048 -43.4041 -43.4036 -43.4033 -43.4032
   -43.4017 -43.3992 -43.3989 -43.3985 -43.3981 -43.3971 -43.3960 -43.3934
   -43.3929 -43.3925 -43.3920 -43.3908 -43.3873 -43.3873 -43.3864 -43.3861
   -43.3837 -43.3823 -43.3821 -43.3811 -43.3753 -43.3745 -43.3710 -29.2987
   -29.2626 -29.2549 -29.2373 -29.2098 -29.1957 -29.1890 -29.1656 -29.1560
   -29.1380 -29.1278 -29.1119 -29.1002 -29.0917 -29.0835 -29.0605 -29.0549
   -29.0360 -29.0236 -29.0206 -29.0125 -26.6220 -26.6046 -26.6033 -23.0241
   -22.9979 -22.9633 -22.9410 -22.9120 -22.8871 -22.8625 -22.8490 -22.8216
   -22.7997 -22.7840 -22.7438 -22.7383 -22.7360 -22.7242 -22.7148 -22.6982
   -22.6788  16.1958  16.7704  17.0726  17.3521  17.4640  17.6614  17.7451
    17.8425  17.9652  18.0255  18.2826  18.4054  18.5005  18.6914  18.7936
    18.8685  18.9154  18.9838  19.0461  19.1135  19.2338  19.3991  19.5658
    19.6157  19.8564  19.9797  20.0059  20.0598  20.0976  20.1564  20.2553
    20.2752  20.3267  20.4523  20.5791  20.6493  20.7553  20.7710  20.8455
    20.9099  20.9473  21.0442  21.0883  21.2075  21.2989  21.5351  21.6196
    21.8246  21.8441  21.9211  22.0215  22.0808  22.1278  22.1789  22.2898
    22.4491  22.5609  22.7800  22.8305  22.9165  22.9744  23.0079  23.1278
    23.3145  23.4928  23.5912  23.6565  23.7012  23.7630  23.8596  23.8952
    23.9701  24.0667  24.1457  24.2204  25.2083  25.7998  25.9138  27.0658
    27.7747  28.6042  28.8753  29.4864  30.2135  30.7480  31.0773  31.3978
    31.5112  32.1459  33.0301  33.3992  33.5893  33.8801  34.1820  34.6369
    35.0063  35.7377  35.9776  36.1089  36.2501  36.3997

          k = 0.4825-0.2647-0.2000 ( 27650 PWs)   bands (ev):

   -75.0369 -75.0314 -75.0215 -75.0170 -75.0096 -75.0036 -74.9959 -60.8932
   -54.9962 -54.9772 -54.9645 -54.9566 -54.9523 -54.9427 -43.4464 -43.4393
   -43.4391 -43.4294 -43.4280 -43.4280 -43.4271 -43.4236 -43.4191 -43.4168
   -43.4164 -43.4150 -43.4141 -43.4135 -43.4134 -43.4124 -43.4117 -43.4114
   -43.4111 -43.4099 -43.4051 -43.4048 -43.4041 -43.4036 -43.4033 -43.4032
   -43.4017 -43.3992 -43.3989 -43.3985 -43.3981 -43.3971 -43.3960 -43.3934
   -43.3929 -43.3925 -43.3920 -43.3908 -43.3873 -43.3873 -43.3864 -43.3861
   -43.3837 -43.3823 -43.3821 -43.3811 -43.3753 -43.3745 -43.3710 -29.2957
   -29.2670 -29.2593 -29.2485 -29.2067 -29.1921 -29.1796 -29.1668 -29.1609
   -29.1357 -29.1247 -29.1046 -29.0970 -29.0896 -29.0805 -29.0585 -29.0536
   -29.0425 -29.0380 -29.0173 -29.0123 -26.6220 -26.6046 -26.6033 -23.0237
   -23.0035 -22.9651 -22.9455 -22.9148 -22.8799 -22.8684 -22.8309 -22.8154
   -22.7988 -22.7741 -22.7496 -22.7452 -22.7367 -22.7289 -22.7176 -22.7008
   -22.6772  15.8622  16.6650  17.1911  17.4819  17.6714  17.7974  17.8424
    17.9260  17.9951  18.1266  18.2345  18.3267  18.3831  18.4892  18.5932
    18.7386  18.7684  18.9104  19.1812  19.3020  19.3994  19.4264  19.5656
    19.6682  19.7615  19.8856  19.9063  19.9555  20.0100  20.1402  20.2208
    20.4896  20.5692  20.6487  20.6865  20.8139  20.8412  20.9069  20.9735
    21.0081  21.0509  21.1470  21.1999  21.2291  21.3208  21.4111  21.5295
    21.6716  21.6894  21.8466  21.8877  21.9435  21.9688  22.1809  22.2484
    22.5542  22.6441  22.7586  22.7955  22.8603  22.8939  22.9555  23.0157
    23.1266  23.2604  23.6287  23.7263  23.7507  23.8010  23.8606  23.8957
    23.9387  24.0326  24.1883  24.6126  25.4498  25.8202  26.4924  26.8089
    27.3700  28.0632  28.5456  29.4668  29.7191  30.3660  30.6659  31.4916
    31.8957  32.4481  32.9183  33.3001  33.6559  34.0149  34.2994  34.5309
    35.1181  35.2670  35.7666  35.8808  36.3898  36.9121

     the Fermi energy is    23.6691 ev

!    total energy              =   -8784.73309107 Ry
     estimated scf accuracy    <          5.4E-09 Ry
     smearing contrib. (-TS)   =      -0.01199649 Ry
     internal energy E=F+TS    =   -8784.72109458 Ry

     The total energy is F=E-TS. E is the sum of the following terms:
     one-electron contribution =   -5813.96934088 Ry
     hartree contribution      =    3129.95937896 Ry
     xc contribution           =    -684.81568599 Ry
     ewald contribution        =   -5415.89544667 Ry

     convergence has been achieved in  24 iterations

     Forces acting on atoms (cartesian axes, Ry/au):

     atom    1 type  1   force =     0.00037090   -0.00144312    0.00069786
     atom    2 type  2   force =    -0.00067387    0.00343690    0.00255445
     atom    3 type  2   force =    -0.00126393   -0.00278106   -0.00293144
     atom    4 type  2   force =    -0.00198307   -0.00383273    0.00175571
     atom    5 type  2   force =    -0.00219749   -0.00023741    0.00238615
     atom    6 type  2   force =     0.00430839    0.00353925   -0.00118071
     atom    7 type  2   force =     0.00196631   -0.00049916   -0.00323974
     atom    8 type  2   force =     0.00065789    0.00477872   -0.00044993
     atom    9 type  3   force =    -0.00141786   -0.00669691   -0.00025457
     atom   10 type  3   force =     0.00523380    0.00639139    0.00517667
     atom   11 type  3   force =    -0.00586977   -0.00179212    0.00127713
     atom   12 type  3   force =    -0.00209090   -0.00544103   -0.00109896
     atom   13 type  3   force =     0.00374451    0.00449220   -0.00268612
     atom   14 type  3   force =    -0.00078490    0.00008509   -0.00200650

     Total force =     0.020119     Total SCF correction =     0.000566


     Computing stress (Cartesian axis) and pressure

          total   stress  (Ry/bohr**3)                   (kbar)     P=      -15.89
  -0.00009687  -0.00000123  -0.00000336          -14.25       -0.18       -0.49
  -0.00000123  -0.00010996  -0.00001258           -0.18      -16.18       -1.85
  -0.00000336  -0.00001258  -0.00011732           -0.49       -1.85      -17.26


     Writing all to output data dir /home/tenant3/nexus-mat/dft/runs/dft-paper-worker-06/jobs/Pt-Pd-Rh-03_PdPt7Rh6/tmp/Pt-Pd-Rh-03_PdPt7Rh6.save/ :
     XML data file, charge density, pseudopotentials, collected wavefunctions

     init_run     :   1550.33s CPU   6053.28s WALL (       1 calls)
     electrons    :  73158.87s CPU 211615.07s WALL (       1 calls)
     forces       :    822.35s CPU   1390.62s WALL (       1 calls)
     stress       :   2694.36s CPU   4109.56s WALL (       1 calls)

     Called by init_run:
     wfcinit      :   1533.69s CPU   5998.61s WALL (       1 calls)
     potinit      :      1.10s CPU      3.68s WALL (       1 calls)
     hinit0       :      0.92s CPU      2.87s WALL (       1 calls)

     Called by electrons:
     c_bands      :  66037.19s CPU 191899.64s WALL (      24 calls)
     sum_band     :   6941.24s CPU  19122.35s WALL (      24 calls)
     v_of_rho     :     14.70s CPU     44.08s WALL (      25 calls)
     newd         :    177.21s CPU    588.94s WALL (      25 calls)
     mix_rho      :      2.32s CPU      6.21s WALL (      24 calls)

     Called by c_bands:
     init_us_2    :    111.77s CPU    307.17s WALL (    3213 calls)
     cegterg      :  65498.98s CPU 190406.25s WALL (    1512 calls)

     Called by *egterg:
     cdiaghg      :    504.12s CPU   2278.10s WALL (    3987 calls)
     h_psi        :  26853.91s CPU  77263.35s WALL (    4050 calls)
     s_psi        :   8487.82s CPU  24226.51s WALL (    4050 calls)
     g_psi        :     19.75s CPU     56.64s WALL (    2475 calls)

     Called by h_psi:
     h_psi:calbec :  10294.65s CPU  29420.96s WALL (    4050 calls)
     vloc_psi     :   8042.03s CPU  23318.52s WALL (    4050 calls)
                                        0.00s GPU  (    4050 calls)
     add_vuspsi   :   8489.62s CPU  24247.96s WALL (    4050 calls)

     General routines
     calbec       :  18520.98s CPU  47878.37s WALL (    6633 calls)
     fft          :     10.86s CPU     28.70s WALL (     348 calls)
     ffts         :      0.45s CPU      1.26s WALL (      49 calls)
     fftw         :   8980.95s CPU  25747.28s WALL ( 1614570 calls)
     interpolate  :      1.16s CPU      3.18s WALL (      25 calls)


     PWSCF        :     21h43m CPU   2d13h59m WALL


   This run was terminated on:  15:23:44  23Jul2026            

=------------------------------------------------------------------------------=
   JOB DONE.
=------------------------------------------------------------------------------=
