
     Program PWSCF v.7.5 starts on 20Jul2026 at 19:36:41 

     This program is part of the open-source Quantum ESPRESSO suite
     for quantum simulation of materials; please cite
         "P. Giannozzi et al., J. Phys.:Condens. Matter 21 395502 (2009);
         "P. Giannozzi et al., J. Phys.:Condens. Matter 29 465901 (2017);
         "P. Giannozzi et al., J. Chem. Phys. 152 154105 (2020);
          URL http://www.quantum-espresso.org", 
     in publications or presentations arising from this work. More details at
     http://www.quantum-espresso.org/quote

     Serial multi-threaded version, running on    1 processor cores
     2393 MiB available memory on the printing compute node when the environment starts

     Reading input from /home/tenant3/nexus-mat/dft/runs/dft-paper-worker-06/jobs/Pt-Pd-01_Pd4Pt4/input.in

     Current dimensions of program PWSCF are:
     Max number of different atomic species (ntypx) = 10
     Max number of k-points (npk) =  40000
     Max angular momentum in pseudopotentials (lmaxx) =  4
     file Pt.pbe-spfn-rrkjus_psl.1.0.0.UPF: wavefunction(s)  5P renormalized


     G-vector sticks info
     --------------------
     sticks:   dense  smooth     PW     G-vecs:    dense   smooth      PW
     Sum        5475    2747    749               366095   129477   18639

     Using Slab Decomposition



     bravais-lattice index     =            0
     lattice parameter (alat)  =       7.3309  a.u.
     unit-cell volume          =     830.5724 (a.u.)^3
     number of atoms/cell      =            8
     number of atomic types    =            2
     number of electrons       =       200.00
     number of Kohn-Sham states=          120
     kinetic-energy cutoff     =     110.0000  Ry
     charge density cutoff     =     880.0000  Ry
     scf convergence threshold =      1.0E-08
     mixing beta               =       0.3000
     number of iterations used =            8  plain     mixing
     Exchange-correlation= PBE
                           (   1   4   3   4   0   0   0)

     celldm(1)=   7.330861  celldm(2)=   0.000000  celldm(3)=   0.000000
     celldm(4)=   0.000000  celldm(5)=   0.000000  celldm(6)=   0.000000

     crystal axes: (cart. coord. in units of alat)
               a(1) = (   0.999998   0.000000  -0.001927 )  
               a(2) = (  -0.002469   1.453162  -0.000698 )  
               a(3) = (   0.000000   0.000000   1.450772 )  

     reciprocal axes: (cart. coord. in units 2 pi/alat)
               b(1) = (  1.000002  0.001699 -0.000000 )  
               b(2) = ( -0.000000  0.688155  0.000000 )  
               b(3) = (  0.001328  0.000333  0.689288 )  


     PseudoPot. # 1 for Pd read from file:
     /home/tenant3/nexus-mat/dft/pseudo/SSSP_1.3.0_PBE_precision/Pd_ONCV_PBE-1.0.oncvpsp.upf
     MD5 check sum: eb77f42b51d86fb18e25f68156a31cf1
     Pseudo is Norm-conserving, Zval = 18.0
     Generated using ONCVPSP code by D. R. Hamann
     Using radial grid of 1410 points,  6 beta functions with: 
                l(1) =   0
                l(2) =   0
                l(3) =   1
                l(4) =   1
                l(5) =   2
                l(6) =   2

     PseudoPot. # 2 for Pt read from file:
     /home/tenant3/nexus-mat/dft/pseudo/SSSP_1.3.0_PBE_precision/Pt.pbe-spfn-rrkjus_psl.1.0.0.UPF
     MD5 check sum: ed006ba81d2b6b3b17616bb61ae12f04
     Pseudo is Ultrasoft + core correction, Zval = 32.0
     Generated using "atomic" code by A. Dal Corso  v.5.1
     Using radial grid of 1277 points,  8 beta functions with: 
                l(1) =   0
                l(2) =   0
                l(3) =   1
                l(4) =   1
                l(5) =   2
                l(6) =   2
                l(7) =   3
                l(8) =   3
     Q(r) pseudized with 0 coefficients 


     atomic species   valence    mass     pseudopotential
     Pd               18.00   106.42000     Pd( 1.00)
     Pt               32.00   195.08400     Pt( 1.00)

     No symmetry found



   Cartesian axes

     site n.     atom                  positions (alat units)
         1        Pd     tau(   1) = (   0.1289439   0.1887658   0.6972992  )
         2        Pd     tau(   2) = (   0.6268757   1.2781402   1.0582203  )
         3        Pd     tau(   3) = (   0.1274333   0.9154373   1.4224916  )
         4        Pd     tau(   4) = (   0.6282150   0.5522637   0.3338637  )
         5        Pt     tau(   5) = (   0.1287574   0.1886928   1.4228113  )
         6        Pt     tau(   6) = (   0.6268413   1.2786675   0.3331175  )
         7        Pt     tau(   7) = (   0.6282650   0.5515838   1.0592963  )
         8        Pt     tau(   8) = (   0.1275394   0.9151542   0.6971457  )

     number of k points=    88  Marzari-Vanderbilt smearing, width (Ry)=  0.0200
                       cart. coord. in units 2pi/alat
        k(    1) = (   0.0000000   0.0000000   0.0000000), wk =   0.0114286
        k(    2) = (   0.0002657   0.0000666   0.1378576), wk =   0.0228571
        k(    3) = (   0.0005313   0.0001333   0.2757152), wk =   0.0228571
        k(    4) = (   0.0000000   0.1376309   0.0000000), wk =   0.0228571
        k(    5) = (   0.0002657   0.1376976   0.1378576), wk =   0.0228571
        k(    6) = (   0.0005313   0.1377642   0.2757152), wk =   0.0228571
        k(    7) = (  -0.0005313   0.1374976  -0.2757152), wk =   0.0228571
        k(    8) = (  -0.0002657   0.1375643  -0.1378576), wk =   0.0228571
        k(    9) = (   0.0000000   0.2752618   0.0000000), wk =   0.0228571
        k(   10) = (   0.0002657   0.2753285   0.1378576), wk =   0.0228571
        k(   11) = (   0.0005313   0.2753951   0.2757152), wk =   0.0228571
        k(   12) = (  -0.0005313   0.2751286  -0.2757152), wk =   0.0228571
        k(   13) = (  -0.0002657   0.2751952  -0.1378576), wk =   0.0228571
        k(   14) = (   0.1428574   0.0002427   0.0000000), wk =   0.0228571
        k(   15) = (   0.1431231   0.0003093   0.1378576), wk =   0.0228571
        k(   16) = (   0.1433887   0.0003760   0.2757152), wk =   0.0228571
        k(   17) = (   0.1423261   0.0001094  -0.2757152), wk =   0.0228571
        k(   18) = (   0.1425917   0.0001761  -0.1378576), wk =   0.0228571
        k(   19) = (   0.1428574   0.1378736   0.0000000), wk =   0.0228571
        k(   20) = (   0.1431231   0.1379403   0.1378576), wk =   0.0228571
        k(   21) = (   0.1433887   0.1380069   0.2757152), wk =   0.0228571
        k(   22) = (   0.1423261   0.1377403  -0.2757152), wk =   0.0228571
        k(   23) = (   0.1425917   0.1378070  -0.1378576), wk =   0.0228571
        k(   24) = (   0.1428574   0.2755045   0.0000000), wk =   0.0228571
        k(   25) = (   0.1431231   0.2755712   0.1378576), wk =   0.0228571
        k(   26) = (   0.1433887   0.2756378   0.2757152), wk =   0.0228571
        k(   27) = (   0.1423261   0.2753713  -0.2757152), wk =   0.0228571
        k(   28) = (   0.1425917   0.2754379  -0.1378576), wk =   0.0228571
        k(   29) = (   0.1428574  -0.2750191   0.0000000), wk =   0.0228571
        k(   30) = (   0.1431231  -0.2749525   0.1378576), wk =   0.0228571
        k(   31) = (   0.1433887  -0.2748859   0.2757152), wk =   0.0228571
        k(   32) = (   0.1423261  -0.2751524  -0.2757152), wk =   0.0228571
        k(   33) = (   0.1425917  -0.2750858  -0.1378576), wk =   0.0228571
        k(   34) = (   0.1428574  -0.1373882   0.0000000), wk =   0.0228571
        k(   35) = (   0.1431231  -0.1373216   0.1378576), wk =   0.0228571
        k(   36) = (   0.1433887  -0.1372549   0.2757152), wk =   0.0228571
        k(   37) = (   0.1423261  -0.1375215  -0.2757152), wk =   0.0228571
        k(   38) = (   0.1425917  -0.1374549  -0.1378576), wk =   0.0228571
        k(   39) = (   0.2857148   0.0004854   0.0000000), wk =   0.0228571
        k(   40) = (   0.2859805   0.0005520   0.1378576), wk =   0.0228571
        k(   41) = (   0.2862461   0.0006187   0.2757152), wk =   0.0228571
        k(   42) = (   0.2851835   0.0003521  -0.2757152), wk =   0.0228571
        k(   43) = (   0.2854492   0.0004188  -0.1378576), wk =   0.0228571
        k(   44) = (   0.2857148   0.1381163   0.0000000), wk =   0.0228571
        k(   45) = (   0.2859805   0.1381829   0.1378576), wk =   0.0228571
        k(   46) = (   0.2862461   0.1382496   0.2757152), wk =   0.0228571
        k(   47) = (   0.2851835   0.1379830  -0.2757152), wk =   0.0228571
        k(   48) = (   0.2854492   0.1380497  -0.1378576), wk =   0.0228571
        k(   49) = (   0.2857148   0.2757472   0.0000000), wk =   0.0228571
        k(   50) = (   0.2859805   0.2758139   0.1378576), wk =   0.0228571
        k(   51) = (   0.2862461   0.2758805   0.2757152), wk =   0.0228571
        k(   52) = (   0.2851835   0.2756140  -0.2757152), wk =   0.0228571
        k(   53) = (   0.2854492   0.2756806  -0.1378576), wk =   0.0228571
        k(   54) = (   0.2857148  -0.2747764   0.0000000), wk =   0.0228571
        k(   55) = (   0.2859805  -0.2747098   0.1378576), wk =   0.0228571
        k(   56) = (   0.2862461  -0.2746432   0.2757152), wk =   0.0228571
        k(   57) = (   0.2851835  -0.2749097  -0.2757152), wk =   0.0228571
        k(   58) = (   0.2854492  -0.2748431  -0.1378576), wk =   0.0228571
        k(   59) = (   0.2857148  -0.1371455   0.0000000), wk =   0.0228571
        k(   60) = (   0.2859805  -0.1370789   0.1378576), wk =   0.0228571
        k(   61) = (   0.2862461  -0.1370123   0.2757152), wk =   0.0228571
        k(   62) = (   0.2851835  -0.1372788  -0.2757152), wk =   0.0228571
        k(   63) = (   0.2854492  -0.1372122  -0.1378576), wk =   0.0228571
        k(   64) = (   0.4285722   0.0007281   0.0000000), wk =   0.0228571
        k(   65) = (   0.4288379   0.0007947   0.1378576), wk =   0.0228571
        k(   66) = (   0.4291035   0.0008614   0.2757152), wk =   0.0228571
        k(   67) = (   0.4280409   0.0005948  -0.2757152), wk =   0.0228571
        k(   68) = (   0.4283066   0.0006615  -0.1378576), wk =   0.0228571
        k(   69) = (   0.4285722   0.1383590   0.0000000), wk =   0.0228571
        k(   70) = (   0.4288379   0.1384256   0.1378576), wk =   0.0228571
        k(   71) = (   0.4291035   0.1384923   0.2757152), wk =   0.0228571
        k(   72) = (   0.4280409   0.1382257  -0.2757152), wk =   0.0228571
        k(   73) = (   0.4283066   0.1382924  -0.1378576), wk =   0.0228571
        k(   74) = (   0.4285722   0.2759899   0.0000000), wk =   0.0228571
        k(   75) = (   0.4288379   0.2760566   0.1378576), wk =   0.0228571
        k(   76) = (   0.4291035   0.2761232   0.2757152), wk =   0.0228571
        k(   77) = (   0.4280409   0.2758567  -0.2757152), wk =   0.0228571
        k(   78) = (   0.4283066   0.2759233  -0.1378576), wk =   0.0228571
        k(   79) = (   0.4285722  -0.2745338   0.0000000), wk =   0.0228571
        k(   80) = (   0.4288379  -0.2744671   0.1378576), wk =   0.0228571
        k(   81) = (   0.4291035  -0.2744005   0.2757152), wk =   0.0228571
        k(   82) = (   0.4280409  -0.2746670  -0.2757152), wk =   0.0228571
        k(   83) = (   0.4283066  -0.2746004  -0.1378576), wk =   0.0228571
        k(   84) = (   0.4285722  -0.1369028   0.0000000), wk =   0.0228571
        k(   85) = (   0.4288379  -0.1368362   0.1378576), wk =   0.0228571
        k(   86) = (   0.4291035  -0.1367696   0.2757152), wk =   0.0228571
        k(   87) = (   0.4280409  -0.1370361  -0.2757152), wk =   0.0228571
        k(   88) = (   0.4283066  -0.1369695  -0.1378576), wk =   0.0228571

     Dense  grid:   366095 G-vectors     FFT dimensions: (  72, 108, 108)

     Smooth grid:   129477 G-vectors     FFT dimensions: (  50,  72,  72)

     Estimated max dynamical RAM per process >       6.02 GB

     Initial potential from superposition of free atoms

     starting charge     199.9980, renormalised to     200.0000
     Starting wfcs are  108 randomized atomic wfcs +   12 random wfcs

     total cpu time spent up to now is      560.0 secs

     Self-consistent Calculation

     iteration #  1     ecut=   110.00 Ry     beta= 0.30
     Davidson diagonalization with overlap
     ethr =  1.00E-02,  avg # of iterations =  3.0

     Threshold (ethr) on eigenvalues was too large:
     Diagonalizing with lowered threshold

     Davidson diagonalization with overlap
     ethr =  5.44E-04,  avg # of iterations =  1.1

     total cpu time spent up to now is     4667.3 secs

     total energy              =   -5143.88045337 Ry
     estimated scf accuracy    <       1.08846997 Ry

     iteration #  2     ecut=   110.00 Ry     beta= 0.30
     Davidson diagonalization with overlap
     ethr =  5.44E-04,  avg # of iterations =  2.1

     total cpu time spent up to now is     6204.3 secs

     total energy              =   -5144.01598151 Ry
     estimated scf accuracy    <       1.97975608 Ry

     iteration #  3     ecut=   110.00 Ry     beta= 0.30
     Davidson diagonalization with overlap
     ethr =  5.44E-04,  avg # of iterations =  2.0

     total cpu time spent up to now is     7599.8 secs

     total energy              =   -5144.23900597 Ry
     estimated scf accuracy    <       0.03684026 Ry

     iteration #  4     ecut=   110.00 Ry     beta= 0.30
     Davidson diagonalization with overlap
     ethr =  1.84E-05,  avg # of iterations =  2.7

     total cpu time spent up to now is     8865.8 secs

     total energy              =   -5144.24022289 Ry
     estimated scf accuracy    <       0.00523800 Ry

     iteration #  5     ecut=   110.00 Ry     beta= 0.30
     Davidson diagonalization with overlap
     ethr =  2.62E-06,  avg # of iterations =  2.7

     total cpu time spent up to now is     9988.2 secs

     total energy              =   -5144.24039476 Ry
     estimated scf accuracy    <       0.00134129 Ry

     iteration #  6     ecut=   110.00 Ry     beta= 0.30
     Davidson diagonalization with overlap
     ethr =  6.71E-07,  avg # of iterations =  1.6

     total cpu time spent up to now is    11061.3 secs

     total energy              =   -5144.24055817 Ry
     estimated scf accuracy    <       0.00080416 Ry

     iteration #  7     ecut=   110.00 Ry     beta= 0.30
     Davidson diagonalization with overlap
     ethr =  4.02E-07,  avg # of iterations =  1.0

     total cpu time spent up to now is    12290.1 secs

     total energy              =   -5144.24060415 Ry
     estimated scf accuracy    <       0.00003692 Ry

     iteration #  8     ecut=   110.00 Ry     beta= 0.30
     Davidson diagonalization with overlap
     ethr =  1.85E-08,  avg # of iterations =  1.1

     total cpu time spent up to now is    13268.9 secs

     total energy              =   -5144.24060470 Ry
     estimated scf accuracy    <       0.00002971 Ry

     iteration #  9     ecut=   110.00 Ry     beta= 0.30
     Davidson diagonalization with overlap
     ethr =  1.49E-08,  avg # of iterations =  1.0

     total cpu time spent up to now is    14233.0 secs

     total energy              =   -5144.24060671 Ry
     estimated scf accuracy    <       0.00000171 Ry

     iteration # 10     ecut=   110.00 Ry     beta= 0.30
     Davidson diagonalization with overlap
     ethr =  8.54E-10,  avg # of iterations =  2.0

     total cpu time spent up to now is    15472.6 secs

     total energy              =   -5144.24060683 Ry
     estimated scf accuracy    <       0.00000154 Ry

     iteration # 11     ecut=   110.00 Ry     beta= 0.30
     Davidson diagonalization with overlap
     ethr =  7.72E-10,  avg # of iterations =  1.1

     total cpu time spent up to now is    16609.8 secs

     total energy              =   -5144.24060697 Ry
     estimated scf accuracy    <       0.00000017 Ry

     iteration # 12     ecut=   110.00 Ry     beta= 0.30
     Davidson diagonalization with overlap
     ethr =  8.70E-11,  avg # of iterations =  1.1

     total cpu time spent up to now is    17586.7 secs

     total energy              =   -5144.24060698 Ry
     estimated scf accuracy    <       0.00000003 Ry

     iteration # 13     ecut=   110.00 Ry     beta= 0.30
     Davidson diagonalization with overlap
     ethr =  1.50E-11,  avg # of iterations =  2.0

     total cpu time spent up to now is    18822.7 secs

     total energy              =   -5144.24060698 Ry
     estimated scf accuracy    <       0.00000004 Ry

     iteration # 14     ecut=   110.00 Ry     beta= 0.30
     Davidson diagonalization with overlap
     ethr =  1.50E-11,  avg # of iterations =  1.0

     total cpu time spent up to now is    19755.0 secs

     End of self-consistent calculation

          k = 0.0000 0.0000 0.0000 ( 16205 PWs)   bands (ev):

   -75.9050 -75.8944 -75.8944 -75.8839 -61.9267 -61.9110 -61.9109 -61.8953
   -44.2953 -44.2946 -44.2946 -44.2940 -44.2922 -44.2912 -44.2911 -44.2905
   -44.2901 -44.2897 -44.2896 -44.2888 -44.2697 -44.2696 -44.2695 -44.2694
   -44.2658 -44.2657 -44.2657 -44.2656 -44.2610 -44.2608 -44.2608 -44.2607
   -44.2605 -44.2604 -44.2603 -44.2600 -30.1434 -30.1429 -30.0351 -30.0348
   -30.0345 -30.0344 -30.0157 -29.9859 -29.9858 -29.9574 -29.9315 -29.9175
   -27.6915 -27.6827 -27.6701 -27.6650 -27.6649 -27.6482 -27.6132 -27.6129
   -27.5953 -27.5952 -27.5256 -27.5059  13.8405  16.2956  16.5132  16.6282
    16.7530  16.8189  16.8244  17.4992  17.5004  17.9790  17.9791  18.5566
    18.5570  18.6994  18.7004  18.7296  18.7311  19.1469  19.1477  19.1682
    19.2270  19.4311  20.2253  20.2255  20.2848  20.2850  20.8438  20.8457
    20.8764  20.9679  20.9701  21.1546  22.1569  22.3967  22.4551  22.5110
    22.6082  22.6337  22.7230  22.8287  23.1963  23.7788  23.7800  24.6650
    24.6665  24.8083  24.8197  25.3212  30.8013  31.8702  33.4999  33.8802
    33.8828  34.2082  34.2886  34.6383  34.6414  34.6763  34.7332  34.8343

          k = 0.0003 0.0001 0.1379 ( 16180 PWs)   bands (ev):

   -75.9045 -75.8977 -75.8912 -75.8844 -61.9259 -61.9158 -61.9061 -61.8961
   -44.2952 -44.2948 -44.2944 -44.2940 -44.2921 -44.2914 -44.2909 -44.2905
   -44.2902 -44.2898 -44.2895 -44.2888 -44.2697 -44.2696 -44.2695 -44.2694
   -44.2658 -44.2657 -44.2657 -44.2656 -44.2610 -44.2608 -44.2608 -44.2607
   -44.2606 -44.2604 -44.2603 -44.2600 -30.1378 -30.1372 -30.0681 -30.0673
   -30.0130 -30.0031 -29.9991 -29.9920 -29.9783 -29.9588 -29.9366 -29.9230
   -27.6880 -27.6794 -27.6716 -27.6707 -27.6598 -27.6492 -27.6384 -27.6236
   -27.5867 -27.5681 -27.5300 -27.5109  14.0785  16.4405  16.6533  16.7693
    16.7748  16.8754  16.9470  16.9725  17.7991  17.8678  18.0595  18.2427
    18.3595  18.4662  18.6088  18.6589  18.8112  19.0372  19.1077  19.2764
    19.3962  19.5346  20.1955  20.3573  20.5254  20.6810  20.6866  20.7863
    21.1515  21.1879  21.1912  21.4613  21.8547  21.8976  21.9190  22.0259
    22.2951  22.3526  22.4683  22.6864  22.7652  22.9411  24.0726  24.3553
    24.7893  24.8515  26.1622  26.3756  31.1328  32.5313  32.8659  33.0609
    33.1111  33.9173  34.1495  34.3382  34.7537  34.8380  34.8890  34.9245

          k = 0.0005 0.0001 0.2757 ( 16219 PWs)   bands (ev):

   -75.9030 -75.9006 -75.8882 -75.8859 -61.9237 -61.9202 -61.9018 -61.8983
   -44.2952 -44.2949 -44.2943 -44.2941 -44.2921 -44.2916 -44.2907 -44.2904
   -44.2902 -44.2900 -44.2894 -44.2889 -44.2697 -44.2696 -44.2695 -44.2694
   -44.2658 -44.2657 -44.2656 -44.2656 -44.2610 -44.2608 -44.2608 -44.2606
   -44.2606 -44.2604 -44.2602 -44.2600 -30.1219 -30.1211 -30.0976 -30.0971
   -30.0066 -29.9994 -29.9737 -29.9702 -29.9658 -29.9632 -29.9511 -29.9394
   -27.6779 -27.6745 -27.6743 -27.6688 -27.6620 -27.6549 -27.6515 -27.6488
   -27.5623 -27.5442 -27.5427 -27.5245  14.7509  15.7285  16.8279  17.0551
    17.0984  17.2234  17.2966  17.3554  17.4700  17.5457  17.6465  17.7313
    17.8120  18.1322  18.6703  18.8888  19.2094  19.2226  19.5103  19.7172
    19.7326  19.7577  19.8835  20.3306  20.4763  20.4904  20.5741  20.7594
    20.9917  21.2592  21.3463  21.3646  21.5514  21.7285  21.7463  21.7983
    21.9417  21.9491  21.9999  22.1805  22.2952  22.5222  24.3038  24.5044
    24.5888  24.7281  28.1410  28.3093  30.2156  30.5175  32.7290  32.7746
    33.7176  33.9869  34.1545  34.2620  35.1002  35.1479  35.2289  35.2939

          k = 0.0000 0.1376 0.0000 ( 16186 PWs)   bands (ev):

   -75.9045 -75.8977 -75.8911 -75.8844 -61.9259 -61.9158 -61.9061 -61.8961
   -44.2952 -44.2948 -44.2944 -44.2940 -44.2921 -44.2914 -44.2909 -44.2905
   -44.2902 -44.2898 -44.2895 -44.2888 -44.2697 -44.2696 -44.2695 -44.2694
   -44.2658 -44.2657 -44.2657 -44.2656 -44.2610 -44.2608 -44.2608 -44.2607
   -44.2606 -44.2604 -44.2603 -44.2600 -30.1378 -30.1372 -30.0681 -30.0674
   -30.0131 -30.0033 -30.0000 -29.9910 -29.9783 -29.9589 -29.9366 -29.9230
   -27.6880 -27.6793 -27.6715 -27.6706 -27.6599 -27.6493 -27.6384 -27.6235
   -27.5867 -27.5682 -27.5300 -27.5109  14.0775  16.4397  16.6531  16.7664
    16.7675  16.8749  16.9465  16.9732  17.7920  17.8664  18.0651  18.2395
    18.3545  18.4693  18.6088  18.6679  18.8123  19.0447  19.0944  19.2910
    19.3807  19.5308  20.2109  20.3664  20.5419  20.6706  20.6758  20.7880
    21.1534  21.1836  21.1846  21.4646  21.8503  21.8940  21.9230  22.0298
    22.2999  22.3569  22.4674  22.6859  22.7557  22.9397  24.0919  24.3782
    24.7951  24.8572  26.1321  26.3732  31.1247  32.5289  32.8523  33.0300
    33.1083  33.9022  34.1586  34.3485  34.7964  34.8354  34.8978  34.9270

          k = 0.0003 0.1377 0.1379 ( 16170 PWs)   bands (ev):

   -75.9050 -75.8944 -75.8944 -75.8839 -61.9267 -61.9110 -61.9109 -61.8953
   -44.2953 -44.2946 -44.2946 -44.2940 -44.2922 -44.2912 -44.2911 -44.2905
   -44.2901 -44.2897 -44.2896 -44.2888 -44.2697 -44.2696 -44.2695 -44.2694
   -44.2658 -44.2657 -44.2657 -44.2656 -44.2610 -44.2608 -44.2608 -44.2607
   -44.2605 -44.2604 -44.2603 -44.2600 -30.1420 -30.1415 -30.0361 -30.0358
   -30.0334 -30.0332 -30.0119 -29.9851 -29.9850 -29.9582 -29.9308 -29.9170
   -27.6935 -27.6845 -27.6766 -27.6644 -27.6641 -27.6491 -27.6117 -27.6115
   -27.5970 -27.5968 -27.5266 -27.5066  14.2821  16.5766  16.7329  16.9254
    16.9851  17.0134  17.0203  17.1045  17.1267  18.0810  18.0932  18.2476
    18.2497  18.3610  18.3657  18.7244  18.7303  18.9721  19.1756  19.1862
    19.4195  19.6483  20.6123  20.6200  20.6341  20.6377  20.6417  20.7107
    20.7222  21.1449  21.2049  21.3083  21.7341  21.7376  21.7443  22.0583
    22.1865  22.2712  22.3143  22.4565  22.7315  22.7414  22.9390  23.1964
    26.2375  26.2698  26.5699  27.0180  30.5406  32.6210  32.9382  32.9498
    33.0803  33.0826  33.6503  33.9684  34.1809  34.4236  34.7604  35.6457

          k = 0.0005 0.1378 0.2757 ( 16188 PWs)   bands (ev):

   -75.9044 -75.8977 -75.8912 -75.8844 -61.9259 -61.9158 -61.9061 -61.8961
   -44.2952 -44.2948 -44.2944 -44.2940 -44.2921 -44.2914 -44.2909 -44.2905
   -44.2902 -44.2898 -44.2895 -44.2888 -44.2697 -44.2696 -44.2695 -44.2694
   -44.2658 -44.2657 -44.2657 -44.2656 -44.2610 -44.2608 -44.2608 -44.2607
   -44.2606 -44.2604 -44.2603 -44.2600 -30.1357 -30.1351 -30.0694 -30.0665
   -30.0074 -30.0047 -29.9973 -29.9922 -29.9763 -29.9603 -29.9353 -29.9225
   -27.6913 -27.6818 -27.6814 -27.6679 -27.6595 -27.6504 -27.6358 -27.6256
   -27.5845 -27.5706 -27.5316 -27.5116  14.8866  15.9881  16.9339  17.0386
    17.0877  17.1923  17.3562  17.5372  17.5872  17.5930  17.7597  17.7648
    18.0757  18.1344  18.3923  18.7200  18.9202  19.3914  19.4808  19.6384
    19.7172  19.8595  20.0332  20.1477  20.2971  20.4150  20.5159  20.7692
    20.9265  21.0868  21.1904  21.2908  21.3195  21.3214  21.5767  21.7716
    21.7861  22.0008  22.2279  22.2511  22.3537  22.6344  22.6659  22.9823
    26.7190  26.9642  28.4276  28.6216  30.4064  30.7202  31.8852  32.7047
    32.8294  33.0408  33.1735  33.6397  34.4912  35.3200  35.8579  35.9979

          k =-0.0005 0.1375-0.2757 ( 16189 PWs)   bands (ev):

   -75.9029 -75.9006 -75.8882 -75.8859 -61.9237 -61.9202 -61.9018 -61.8983
   -44.2952 -44.2949 -44.2943 -44.2941 -44.2921 -44.2916 -44.2907 -44.2904
   -44.2902 -44.2900 -44.2894 -44.2889 -44.2697 -44.2696 -44.2695 -44.2694
   -44.2658 -44.2657 -44.2657 -44.2656 -44.2610 -44.2608 -44.2608 -44.2606
   -44.2606 -44.2604 -44.2602 -44.2600 -30.1204 -30.1194 -30.0996 -30.0970
   -30.0024 -30.0016 -29.9751 -29.9680 -29.9651 -29.9646 -29.9497 -29.9397
   -27.6822 -27.6809 -27.6698 -27.6690 -27.6597 -27.6542 -27.6523 -27.6493
   -27.5604 -27.5459 -27.5444 -27.5242  15.0157  15.7150  16.8302  17.1727
    17.2210  17.3041  17.4197  17.4540  17.4914  17.5607  17.5961  17.8094
    18.1158  18.2025  18.5188  18.6284  18.9194  19.4008  19.5111  19.6481
    19.7534  19.8561  20.0379  20.1221  20.3058  20.4155  20.5200  20.7138
    20.8922  21.1209  21.1926  21.2848  21.3267  21.4024  21.5179  21.7823
    21.8376  21.9208  22.0640  22.4667  22.5559  22.5940  22.6604  22.7487
    26.3327  27.1334  28.5948  28.6966  30.5588  30.6414  32.0287  32.4617
    32.8175  33.0437  33.2893  33.5632  34.5633  35.0545  35.8497  36.1196

          k =-0.0003 0.1376-0.1379 ( 16162 PWs)   bands (ev):

   -75.9030 -75.9006 -75.8882 -75.8859 -61.9237 -61.9202 -61.9017 -61.8983
   -44.2952 -44.2949 -44.2943 -44.2941 -44.2921 -44.2916 -44.2907 -44.2904
   -44.2902 -44.2900 -44.2894 -44.2889 -44.2697 -44.2696 -44.2695 -44.2694
   -44.2658 -44.2657 -44.2656 -44.2656 -44.2610 -44.2608 -44.2608 -44.2606
   -44.2606 -44.2604 -44.2602 -44.2600 -30.1233 -30.1217 -30.0976 -30.0960
   -30.0093 -29.9981 -29.9728 -29.9716 -29.9666 -29.9620 -29.9519 -29.9392
   -27.6776 -27.6759 -27.6692 -27.6679 -27.6636 -27.6549 -27.6513 -27.6486
   -27.5634 -27.5433 -27.5416 -27.5248  14.3343  16.4378  16.5559  16.8242
    16.8626  17.0128  17.0682  17.1070  17.7339  17.9372  17.9681  18.0850
    18.2056  18.5235  18.5906  18.6517  18.8180  18.8994  19.1262  19.2474
    19.4682  19.6482  20.5523  20.6137  20.6360  20.6386  20.6706  20.7086
    20.7601  21.1534  21.2091  21.3133  21.6672  21.8284  21.8552  21.9371
    22.1635  22.2521  22.3362  22.6391  22.7323  22.8167  22.8423  22.9812
    25.4178  26.6108  26.8547  27.0896  31.5235  31.5348  32.6237  32.9143
    33.3154  33.3247  33.6304  34.1380  34.1667  34.4001  34.8844  35.6427

          k = 0.0000 0.2753 0.0000 ( 16219 PWs)   bands (ev):

   -75.9030 -75.9006 -75.8882 -75.8859 -61.9237 -61.9202 -61.9018 -61.8983
   -44.2952 -44.2949 -44.2943 -44.2941 -44.2921 -44.2916 -44.2907 -44.2904
   -44.2902 -44.2900 -44.2894 -44.2889 -44.2697 -44.2696 -44.2695 -44.2694
   -44.2658 -44.2657 -44.2656 -44.2656 -44.2610 -44.2608 -44.2608 -44.2606
   -44.2606 -44.2604 -44.2602 -44.2600 -30.1219 -30.1212 -30.0976 -30.0972
   -30.0069 -30.0000 -29.9737 -29.9702 -29.9653 -29.9632 -29.9511 -29.9392
   -27.6778 -27.6742 -27.6740 -27.6685 -27.6620 -27.6545 -27.6518 -27.6491
   -27.5623 -27.5443 -27.5427 -27.5246  14.7475  15.7222  16.8253  17.0543
    17.0931  17.2215  17.2947  17.3486  17.4687  17.5410  17.6457  17.7278
    17.8084  18.1273  18.6668  18.8796  19.2201  19.2330  19.5242  19.6985
    19.7187  19.7656  19.8954  20.3418  20.4803  20.4945  20.5801  20.7661
    21.0045  21.2659  21.3422  21.3612  21.5587  21.7252  21.7424  21.8014
    21.9424  21.9508  22.0003  22.1793  22.2932  22.5205  24.3228  24.5247
    24.6027  24.7422  28.1033  28.3032  30.1791  30.5075  32.7183  32.7733
    33.7192  33.9919  34.1621  34.2703  35.1054  35.1527  35.2403  35.3048

          k = 0.0003 0.2753 0.1379 ( 16178 PWs)   bands (ev):

   -75.9044 -75.8977 -75.8912 -75.8844 -61.9259 -61.9158 -61.9061 -61.8961
   -44.2952 -44.2948 -44.2944 -44.2940 -44.2921 -44.2914 -44.2909 -44.2905
   -44.2902 -44.2898 -44.2895 -44.2888 -44.2697 -44.2696 -44.2695 -44.2694
   -44.2658 -44.2657 -44.2657 -44.2656 -44.2610 -44.2608 -44.2608 -44.2607
   -44.2606 -44.2604 -44.2603 -44.2600 -30.1357 -30.1351 -30.0694 -30.0666
   -30.0076 -30.0048 -29.9991 -29.9904 -29.9763 -29.9603 -29.9353 -29.9224
   -27.6913 -27.6817 -27.6813 -27.6676 -27.6596 -27.6505 -27.6358 -27.6255
   -27.5846 -27.5707 -27.5316 -27.5116  14.8844  15.9828  16.9322  17.0380
    17.0892  17.1912  17.3518  17.5356  17.5852  17.5867  17.7574  17.7651
    18.0718  18.1284  18.3917  18.7168  18.9295  19.3971  19.4903  19.6260
    19.7237  19.8471  20.0363  20.1554  20.3008  20.4217  20.5200  20.7732
    20.9369  21.0830  21.1862  21.2870  21.3232  21.3256  21.5795  21.7748
    21.7845  21.9993  22.2295  22.2484  22.3533  22.6419  22.6753  22.9817
    26.7463  26.9808  28.3909  28.6173  30.3788  30.7116  31.8662  32.7064
    32.8257  33.0417  33.1819  33.6428  34.5026  35.3396  35.8359  36.0127

          k = 0.0005 0.2754 0.2757 ( 16161 PWs)   bands (ev):

   -75.9049 -75.8944 -75.8944 -75.8839 -61.9267 -61.9110 -61.9110 -61.8953
   -44.2953 -44.2946 -44.2946 -44.2940 -44.2922 -44.2912 -44.2911 -44.2905
   -44.2901 -44.2897 -44.2896 -44.2888 -44.2697 -44.2696 -44.2695 -44.2694
   -44.2658 -44.2657 -44.2657 -44.2656 -44.2610 -44.2608 -44.2608 -44.2607
   -44.2605 -44.2604 -44.2603 -44.2600 -30.1397 -30.1391 -30.0379 -30.0376
   -30.0313 -30.0311 -30.0058 -29.9839 -29.9839 -29.9596 -29.9295 -29.9161
   -27.6968 -27.6874 -27.6871 -27.6632 -27.6630 -27.6505 -27.6094 -27.6091
   -27.5998 -27.5995 -27.5282 -27.5077  15.2952  16.4236  16.4256  17.1474
    17.1528  17.3459  17.6969  17.6981  17.7742  17.9271  17.9276  17.9431
    18.0117  18.4230  18.5293  18.5349  18.6768  18.6793  19.3555  19.4752
    19.7524  19.7586  20.0558  20.1360  20.2730  20.5366  20.6489  20.6519
    20.8001  20.8030  20.9007  20.9026  20.9477  21.0851  21.2173  21.2276
    21.4384  21.7738  21.7761  21.9899  22.4587  22.6207  22.6221  23.1965
    29.1200  29.1474  29.1787  29.5716  30.1319  31.2970  31.3015  31.8943
    31.9583  32.0766  32.0908  32.4308  33.3421  34.6545  34.6714  34.9223

          k =-0.0005 0.2751-0.2757 ( 16151 PWs)   bands (ev):

   -75.9044 -75.8977 -75.8912 -75.8844 -61.9259 -61.9158 -61.9062 -61.8961
   -44.2952 -44.2948 -44.2944 -44.2940 -44.2921 -44.2914 -44.2909 -44.2905
   -44.2902 -44.2898 -44.2895 -44.2888 -44.2697 -44.2696 -44.2695 -44.2694
   -44.2658 -44.2657 -44.2657 -44.2656 -44.2610 -44.2608 -44.2608 -44.2607
   -44.2606 -44.2604 -44.2603 -44.2600 -30.1345 -30.1336 -30.0707 -30.0656
   -30.0057 -30.0040 -29.9964 -29.9921 -29.9751 -29.9612 -29.9345 -29.9221
   -27.6933 -27.6874 -27.6832 -27.6658 -27.6594 -27.6512 -27.6342 -27.6268
   -27.5833 -27.5723 -27.5326 -27.5120  15.6389  15.6570  16.7345  17.2913
    17.3566  17.4714  17.4816  17.5296  17.5348  17.9605  17.9937  18.0153
    18.2492  18.3106  18.3985  18.5502  18.6662  18.8320  19.3416  19.4654
    19.6911  19.8826  20.0575  20.1665  20.2757  20.3987  20.5527  20.7237
    20.7786  20.7921  20.8876  20.9508  21.0216  21.0518  21.2019  21.2163
    21.4958  21.6863  21.8746  21.9478  22.3486  22.7571  22.7887  22.9857
    28.2928  29.2772  29.7429  29.8441  30.6916  31.0826  31.1132  31.4941
    31.8039  31.9200  32.2667  32.5767  34.1046  34.1262  34.1376  35.3209

          k =-0.0003 0.2752-0.1379 ( 16182 PWs)   bands (ev):

   -75.9029 -75.9006 -75.8882 -75.8859 -61.9237 -61.9202 -61.9018 -61.8983
   -44.2952 -44.2949 -44.2943 -44.2941 -44.2921 -44.2916 -44.2907 -44.2904
   -44.2902 -44.2900 -44.2894 -44.2889 -44.2697 -44.2696 -44.2695 -44.2694
   -44.2658 -44.2657 -44.2657 -44.2656 -44.2610 -44.2608 -44.2608 -44.2606
   -44.2606 -44.2604 -44.2602 -44.2600 -30.1205 -30.1194 -30.0996 -30.0970
   -30.0027 -30.0020 -29.9751 -29.9680 -29.9651 -29.9643 -29.9497 -29.9396
   -27.6820 -27.6809 -27.6696 -27.6688 -27.6596 -27.6539 -27.6524 -27.6495
   -27.5604 -27.5460 -27.5444 -27.5243  15.0132  15.7113  16.8300  17.1682
    17.2207  17.3029  17.4165  17.4533  17.4898  17.5590  17.5942  17.8031
    18.1121  18.1987  18.5174  18.6258  18.9286  19.4065  19.5209  19.6358
    19.7592  19.8440  20.0409  20.1300  20.3095  20.4222  20.5241  20.7178
    20.9000  21.1199  21.1885  21.2816  21.3311  21.4079  21.5188  21.7807
    21.8401  21.9188  22.0636  22.4660  22.5636  22.5942  22.6591  22.7581
    26.3522  27.1506  28.5659  28.6922  30.5262  30.6335  32.0191  32.4586
    32.8136  33.0443  33.2970  33.5666  34.5559  35.0919  35.8367  36.1354

          k = 0.1429 0.0002 0.0000 ( 16216 PWs)   bands (ev):

   -75.9039 -75.8944 -75.8944 -75.8850 -61.9251 -61.9110 -61.9109 -61.8969
   -44.2952 -44.2946 -44.2946 -44.2940 -44.2921 -44.2914 -44.2913 -44.2904
   -44.2902 -44.2895 -44.2894 -44.2889 -44.2697 -44.2696 -44.2695 -44.2694
   -44.2658 -44.2657 -44.2657 -44.2656 -44.2610 -44.2608 -44.2608 -44.2606
   -44.2605 -44.2604 -44.2603 -44.2600 -30.1330 -30.1320 -30.0937 -30.0933
   -30.0121 -29.9877 -29.9870 -29.9767 -29.9762 -29.9596 -29.9422 -29.9288
   -27.6847 -27.6741 -27.6699 -27.6642 -27.6638 -27.6501 -27.6476 -27.6474
   -27.5597 -27.5596 -27.5353 -27.5147  14.1090  16.4596  16.6889  16.7576
    16.9064  16.9256  16.9723  17.0168  17.0175  17.4593  17.4598  18.8181
    18.8196  19.0300  19.0312  19.2612  19.2622  19.2685  19.2883  19.3463
    19.6121  19.6133  19.7590  19.7600  19.9217  19.9225  20.9404  21.0037
    21.3834  21.3856  21.3926  21.3954  21.7802  21.8181  22.0224  22.1746
    22.3533  22.4444  22.5274  22.6092  22.6313  23.7497  23.7508  24.0815
    24.5409  24.5423  26.0003  26.0350  31.1439  31.6202  31.6227  31.6391
    32.6725  32.6761  34.3314  34.3320  34.4916  34.5219  34.5917  34.8208

          k = 0.1431 0.0003 0.1379 ( 16189 PWs)   bands (ev):

   -75.9035 -75.8973 -75.8915 -75.8854 -61.9244 -61.9153 -61.9066 -61.8976
   -44.2952 -44.2948 -44.2945 -44.2940 -44.2921 -44.2916 -44.2911 -44.2903
   -44.2903 -44.2897 -44.2893 -44.2888 -44.2697 -44.2696 -44.2695 -44.2694
   -44.2658 -44.2657 -44.2657 -44.2656 -44.2610 -44.2608 -44.2608 -44.2606
   -44.2606 -44.2604 -44.2603 -44.2600 -30.1444 -30.1203 -30.1103 -30.0602
   -30.0098 -30.0096 -29.9928 -29.9799 -29.9609 -29.9592 -29.9490 -29.9214
   -27.6909 -27.6714 -27.6705 -27.6691 -27.6627 -27.6586 -27.6501 -27.6220
   -27.5862 -27.5464 -27.5373 -27.5119  14.3365  16.5434  16.6010  16.7925
    16.8745  17.0558  17.0602  17.1306  17.3117  17.5076  17.5463  18.4476
    18.7007  18.7921  18.8566  19.0943  19.1186  19.2313  19.3661  19.4681
    19.4947  19.5415  19.6838  20.1207  20.2022  20.2228  20.8738  20.9894
    21.0138  21.3496  21.3658  21.5838  21.6961  21.7377  21.7814  21.8764
    21.9643  22.0153  22.4173  22.5648  22.6589  22.7030  24.1084  24.3261
    25.1451  25.7688  25.7720  26.1626  30.2157  31.6222  32.0282  32.1032
    32.2823  33.3612  33.8440  33.8961  34.3501  34.9578  35.2524  35.6486

          k = 0.1434 0.0004 0.2757 ( 16192 PWs)   bands (ev):

   -75.9021 -75.9000 -75.8888 -75.8868 -61.9224 -61.9193 -61.9027 -61.8996
   -44.2951 -44.2949 -44.2943 -44.2941 -44.2921 -44.2917 -44.2909 -44.2904
   -44.2903 -44.2898 -44.2892 -44.2888 -44.2697 -44.2696 -44.2695 -44.2694
   -44.2658 -44.2657 -44.2657 -44.2656 -44.2610 -44.2608 -44.2608 -44.2606
   -44.2606 -44.2604 -44.2602 -44.2600 -30.1459 -30.1381 -30.0800 -30.0450
   -30.0243 -30.0041 -29.9976 -29.9888 -29.9720 -29.9652 -29.9294 -29.9199
   -27.6930 -27.6863 -27.6737 -27.6730 -27.6557 -27.6548 -27.6386 -27.6139
   -27.5951 -27.5687 -27.5213 -27.5128  14.9601  15.7904  16.9370  17.0793
    17.1371  17.2988  17.4076  17.4239  17.4521  17.4791  17.6371  17.9978
    18.1003  18.3196  18.8129  18.9335  19.2464  19.3448  19.4958  19.6054
    19.7024  19.7110  19.7258  20.2490  20.3078  20.4911  20.6457  20.7140
    20.7547  20.7573  20.8018  21.1269  21.2249  21.3814  21.3993  21.6900
    22.0953  22.2467  22.3260  22.3794  22.5095  22.6648  24.5525  24.6953
    25.1889  25.2545  26.8028  28.1144  28.7990  30.6947  32.1259  32.2358
    32.2761  32.4551  34.3079  34.9679  35.0939  35.4673  36.4446  36.5194

          k = 0.1423 0.0001-0.2757 ( 16180 PWs)   bands (ev):

   -75.9021 -75.9000 -75.8888 -75.8867 -61.9224 -61.9193 -61.9027 -61.8995
   -44.2951 -44.2949 -44.2943 -44.2941 -44.2921 -44.2917 -44.2908 -44.2904
   -44.2903 -44.2898 -44.2892 -44.2888 -44.2697 -44.2696 -44.2695 -44.2694
   -44.2658 -44.2657 -44.2657 -44.2656 -44.2610 -44.2608 -44.2608 -44.2606
   -44.2606 -44.2604 -44.2602 -44.2600 -30.1465 -30.1375 -30.0797 -30.0454
   -30.0239 -30.0053 -29.9980 -29.9877 -29.9720 -29.9652 -29.9293 -29.9199
   -27.6934 -27.6859 -27.6735 -27.6732 -27.6563 -27.6533 -27.6396 -27.6138
   -27.5948 -27.5689 -27.5213 -27.5128  14.9552  15.7969  16.9294  17.0746
    17.1287  17.3105  17.4152  17.4317  17.4514  17.4794  17.6385  17.9991
    18.0991  18.3211  18.8168  18.9254  19.2455  19.3444  19.4820  19.6209
    19.7020  19.7136  19.7163  20.2529  20.3090  20.4948  20.6458  20.7048
    20.7428  20.7638  20.7928  21.1328  21.2252  21.3896  21.4008  21.6843
    22.0908  22.2369  22.3315  22.3736  22.5197  22.6724  24.5562  24.6933
    25.1840  25.2638  26.8192  28.1154  28.7657  30.6967  32.1001  32.2485
    32.3291  32.4039  34.2852  35.0047  35.0733  35.4580  36.4975  36.5214

          k = 0.1426 0.0002-0.1379 ( 16193 PWs)   bands (ev):

   -75.9035 -75.8973 -75.8915 -75.8854 -61.9244 -61.9153 -61.9066 -61.8976
   -44.2952 -44.2948 -44.2945 -44.2941 -44.2921 -44.2916 -44.2911 -44.2903
   -44.2903 -44.2897 -44.2893 -44.2888 -44.2697 -44.2696 -44.2695 -44.2694
   -44.2658 -44.2657 -44.2657 -44.2656 -44.2610 -44.2608 -44.2608 -44.2606
   -44.2606 -44.2604 -44.2603 -44.2600 -30.1450 -30.1197 -30.1099 -30.0604
   -30.0102 -30.0099 -29.9926 -29.9798 -29.9610 -29.9590 -29.9490 -29.9214
   -27.6913 -27.6711 -27.6703 -27.6696 -27.6612 -27.6588 -27.6511 -27.6218
   -27.5862 -27.5465 -27.5373 -27.5119  14.3340  16.5484  16.5982  16.7910
    16.8687  17.0552  17.0589  17.1329  17.3173  17.5125  17.5519  18.4517
    18.7076  18.7983  18.8575  19.0978  19.1051  19.2279  19.3558  19.4635
    19.5130  19.5277  19.6934  20.1141  20.1886  20.2158  20.8786  20.9857
    21.0178  21.3548  21.3663  21.5833  21.6962  21.7316  21.7806  21.8711
    21.9620  22.0163  22.4219  22.5706  22.6554  22.7093  24.1088  24.3279
    25.1542  25.7682  25.7807  26.1636  30.1773  31.6038  31.9958  32.0999
    32.3255  33.3533  33.8015  33.8878  34.3985  34.9523  35.2490  35.6511

          k = 0.1429 0.1379 0.0000 ( 16195 PWs)   bands (ev):

   -75.9035 -75.8973 -75.8915 -75.8854 -61.9244 -61.9153 -61.9066 -61.8976
   -44.2952 -44.2948 -44.2945 -44.2941 -44.2921 -44.2916 -44.2911 -44.2903
   -44.2903 -44.2897 -44.2893 -44.2888 -44.2697 -44.2696 -44.2695 -44.2694
   -44.2658 -44.2657 -44.2657 -44.2656 -44.2610 -44.2608 -44.2608 -44.2606
   -44.2606 -44.2604 -44.2603 -44.2600 -30.1449 -30.1198 -30.1099 -30.0607
   -30.0103 -30.0098 -29.9925 -29.9797 -29.9610 -29.9591 -29.9490 -29.9214
   -27.6915 -27.6713 -27.6698 -27.6689 -27.6613 -27.6591 -27.6509 -27.6223
   -27.5863 -27.5464 -27.5373 -27.5119  14.3353  16.5384  16.5996  16.7913
    16.8718  17.0559  17.0601  17.1315  17.3136  17.5088  17.5382  18.4457
    18.7052  18.7951  18.8585  19.0972  19.1090  19.2288  19.3807  19.4559
    19.4871  19.5393  19.6985  20.1284  20.1933  20.2214  20.8758  20.9988
    21.0159  21.3495  21.3662  21.5861  21.6930  21.7334  21.7813  21.8786
    21.9608  22.0145  22.4200  22.5713  22.6490  22.7069  24.1273  24.3475
    25.1434  25.7727  25.7769  26.1332  30.2054  31.6162  32.0443  32.1014
    32.2928  33.3321  33.8355  33.8904  34.3310  34.9515  35.2938  35.6510

          k = 0.1431 0.1379 0.1379 ( 16182 PWs)   bands (ev):

   -75.9039 -75.8944 -75.8944 -75.8850 -61.9251 -61.9110 -61.9109 -61.8969
   -44.2952 -44.2946 -44.2946 -44.2940 -44.2921 -44.2914 -44.2913 -44.2904
   -44.2902 -44.2895 -44.2894 -44.2889 -44.2697 -44.2696 -44.2695 -44.2694
   -44.2658 -44.2657 -44.2657 -44.2656 -44.2610 -44.2608 -44.2608 -44.2606
   -44.2605 -44.2604 -44.2603 -44.2600 -30.1319 -30.1307 -30.0929 -30.0924
   -30.0090 -29.9865 -29.9856 -29.9770 -29.9764 -29.9607 -29.9420 -29.9282
   -27.6863 -27.6758 -27.6756 -27.6638 -27.6635 -27.6504 -27.6490 -27.6485
   -27.5595 -27.5595 -27.5355 -27.5155  14.5368  16.7201  16.8022  16.8067
    16.9137  17.0387  17.0692  17.2004  17.3428  17.7231  17.7285  18.3186
    18.3226  18.7030  18.7035  18.9814  19.1422  19.1468  19.3168  19.3183
    19.4755  19.6169  20.0382  20.0418  20.3793  20.3912  20.7041  20.8670
    20.8764  21.0622  21.1542  21.4142  21.4212  21.6758  21.9940  21.9956
    22.0374  22.1146  22.1830  22.2816  22.6427  22.6528  22.7622  24.2400
    25.6982  26.3515  26.3812  27.3520  30.2860  30.2969  30.6850  32.6780
    33.2874  33.9787  34.1844  34.3259  34.3457  35.2628  35.2762  35.5871

          k = 0.1434 0.1380 0.2757 ( 16186 PWs)   bands (ev):

   -75.9034 -75.8974 -75.8915 -75.8854 -61.9244 -61.9153 -61.9066 -61.8975
   -44.2952 -44.2948 -44.2945 -44.2940 -44.2921 -44.2916 -44.2911 -44.2903
   -44.2903 -44.2897 -44.2893 -44.2888 -44.2697 -44.2696 -44.2695 -44.2694
   -44.2658 -44.2657 -44.2657 -44.2656 -44.2610 -44.2608 -44.2608 -44.2606
   -44.2606 -44.2604 -44.2603 -44.2600 -30.1430 -30.1192 -30.1083 -30.0588
   -30.0106 -30.0053 -29.9919 -29.9770 -29.9630 -29.9590 -29.9494 -29.9205
   -27.6926 -27.6797 -27.6717 -27.6675 -27.6653 -27.6596 -27.6505 -27.6236
   -27.5855 -27.5466 -27.5371 -27.5130  15.1078  16.0550  17.0468  17.0538
    17.1387  17.3678  17.3946  17.6039  17.6046  17.6866  17.8158  17.9841
    18.1388  18.2053  18.5300  18.7573  19.1556  19.1962  19.5102  19.5130
    19.6115  19.8528  19.9086  19.9524  19.9897  20.2476  20.5662  20.6073
    20.7611  20.8222  20.9879  21.1702  21.2256  21.4118  21.4561  21.6947
    22.0934  22.2515  22.2953  22.2969  22.3088  22.6897  22.7114  23.3060
    26.9601  27.0194  27.6026  28.4958  28.9425  30.3779  30.4055  31.5211
    33.0951  34.4224  34.5079  34.5274  34.9666  35.2601  35.6808  36.3744

          k = 0.1423 0.1377-0.2757 ( 16187 PWs)   bands (ev):

   -75.9021 -75.9000 -75.8888 -75.8867 -61.9224 -61.9193 -61.9027 -61.8995
   -44.2951 -44.2949 -44.2943 -44.2941 -44.2921 -44.2917 -44.2909 -44.2904
   -44.2903 -44.2898 -44.2892 -44.2888 -44.2697 -44.2696 -44.2695 -44.2694
   -44.2658 -44.2657 -44.2657 -44.2656 -44.2610 -44.2608 -44.2608 -44.2606
   -44.2606 -44.2604 -44.2602 -44.2600 -30.1454 -30.1377 -30.0783 -30.0464
   -30.0229 -30.0013 -29.9990 -29.9892 -29.9692 -29.9677 -29.9299 -29.9192
   -27.6937 -27.6867 -27.6798 -27.6689 -27.6564 -27.6545 -27.6409 -27.6125
   -27.5964 -27.5685 -27.5209 -27.5135  15.2116  15.8224  16.9796  17.2322
    17.2640  17.3550  17.4481  17.4956  17.6735  17.7118  17.7335  17.9061
    17.9654  18.3721  18.6681  18.6822  19.0916  19.3787  19.4061  19.5252
    19.6212  19.8603  19.8634  19.9329  19.9554  20.2939  20.5467  20.6176
    20.7397  20.8418  20.9808  21.2369  21.2715  21.3641  21.3806  21.7049
    22.1061  22.1458  22.2364  22.4598  22.4877  22.4883  22.7681  23.2643
    26.7540  27.1785  27.6496  28.4200  28.8146  30.5899  30.7456  31.1578
    33.3751  34.1472  34.3009  34.6544  34.7473  35.4408  35.6015  36.4099

          k = 0.1426 0.1378-0.1379 ( 16183 PWs)   bands (ev):

   -75.9021 -75.9000 -75.8888 -75.8868 -61.9224 -61.9193 -61.9026 -61.8996
   -44.2951 -44.2949 -44.2943 -44.2941 -44.2921 -44.2917 -44.2908 -44.2904
   -44.2903 -44.2898 -44.2892 -44.2888 -44.2697 -44.2696 -44.2695 -44.2694
   -44.2658 -44.2657 -44.2657 -44.2656 -44.2610 -44.2608 -44.2608 -44.2606
   -44.2606 -44.2604 -44.2602 -44.2600 -30.1468 -30.1378 -30.0808 -30.0446
   -30.0249 -30.0062 -29.9972 -29.9883 -29.9738 -29.9636 -29.9290 -29.9203
   -27.6931 -27.6855 -27.6753 -27.6693 -27.6556 -27.6533 -27.6383 -27.6148
   -27.5946 -27.5692 -27.5215 -27.5123  14.5771  16.3250  16.7451  16.9006
    16.9836  17.1306  17.2196  17.2853  17.4020  17.6999  17.7065  18.0887
    18.3839  18.5388  18.9127  19.0315  19.1041  19.2681  19.2705  19.3134
    19.5100  19.6202  19.9768  20.0662  20.3547  20.3974  20.7146  20.8531
    20.8726  21.0732  21.1385  21.3826  21.4666  21.7861  21.8783  21.8942
    22.1129  22.1237  22.1546  22.4607  22.5413  22.5432  22.8629  24.2280
    25.7009  25.8341  26.8249  27.3420  29.7701  30.9258  30.9492  32.5702
    32.8861  33.7539  34.1424  34.2145  34.8339  35.2765  35.3322  35.6764

          k = 0.1429 0.2755 0.0000 ( 16186 PWs)   bands (ev):

   -75.9021 -75.9000 -75.8888 -75.8867 -61.9224 -61.9193 -61.9027 -61.8995
   -44.2951 -44.2949 -44.2943 -44.2941 -44.2921 -44.2917 -44.2908 -44.2904
   -44.2903 -44.2898 -44.2892 -44.2888 -44.2697 -44.2696 -44.2695 -44.2694
   -44.2658 -44.2657 -44.2657 -44.2656 -44.2610 -44.2608 -44.2608 -44.2606
   -44.2606 -44.2604 -44.2602 -44.2600 -30.1465 -30.1376 -30.0797 -30.0456
   -30.0253 -30.0046 -29.9969 -29.9883 -29.9720 -29.9652 -29.9294 -29.9198
   -27.6936 -27.6856 -27.6734 -27.6726 -27.6559 -27.6534 -27.6394 -27.6141
   -27.5954 -27.5688 -27.5213 -27.5128  14.9562  15.7850  16.9331  17.0762
    17.1308  17.2958  17.3983  17.4213  17.4505  17.4787  17.6371  17.9957
    18.0994  18.3168  18.8107  18.9255  19.2551  19.3523  19.5087  19.6181
    19.6881  19.6932  19.7299  20.2525  20.3114  20.4958  20.6584  20.7149
    20.7531  20.7613  20.8052  21.1322  21.2300  21.3824  21.3992  21.6923
    22.0959  22.2479  22.3290  22.3808  22.5153  22.6693  24.5677  24.7120
    25.1994  25.2643  26.7992  28.0887  28.7802  30.6584  32.1414  32.2396
    32.2850  32.4591  34.2989  34.9641  35.0793  35.4604  36.4196  36.5514

          k = 0.1431 0.2756 0.1379 ( 16184 PWs)   bands (ev):

   -75.9034 -75.8973 -75.8915 -75.8854 -61.9244 -61.9153 -61.9066 -61.8975
   -44.2952 -44.2948 -44.2945 -44.2941 -44.2921 -44.2916 -44.2911 -44.2903
   -44.2903 -44.2897 -44.2893 -44.2888 -44.2697 -44.2696 -44.2695 -44.2694
   -44.2658 -44.2657 -44.2657 -44.2656 -44.2610 -44.2608 -44.2608 -44.2606
   -44.2606 -44.2604 -44.2603 -44.2600 -30.1436 -30.1187 -30.1079 -30.0593
   -30.0111 -30.0055 -29.9916 -29.9768 -29.9630 -29.9589 -29.9494 -29.9205
   -27.6932 -27.6795 -27.6712 -27.6672 -27.6639 -27.6598 -27.6513 -27.6240
   -27.5856 -27.5466 -27.5371 -27.5130  15.1052  16.0505  17.0467  17.0516
    17.1357  17.3631  17.3956  17.5961  17.6024  17.6849  17.8159  17.9831
    18.1388  18.2033  18.5290  18.7546  19.1639  19.1979  19.5127  19.5147
    19.6177  19.8404  19.9119  19.9458  19.9931  20.2479  20.5672  20.6146
    20.7726  20.8163  20.9940  21.1728  21.2265  21.4156  21.4605  21.6970
    22.0921  22.2522  22.2956  22.2969  22.3145  22.6966  22.7130  23.3059
    26.9605  27.0439  27.6166  28.4771  28.9185  30.3863  30.3936  31.4961
    33.0815  34.4379  34.5232  34.5396  34.9711  35.2421  35.7018  36.3606

          k = 0.1434 0.2756 0.2757 ( 16161 PWs)   bands (ev):

   -75.9039 -75.8944 -75.8944 -75.8849 -61.9251 -61.9110 -61.9109 -61.8968
   -44.2952 -44.2946 -44.2946 -44.2940 -44.2921 -44.2914 -44.2913 -44.2904
   -44.2902 -44.2895 -44.2894 -44.2889 -44.2697 -44.2696 -44.2695 -44.2694
   -44.2658 -44.2657 -44.2657 -44.2656 -44.2610 -44.2608 -44.2608 -44.2606
   -44.2605 -44.2604 -44.2603 -44.2600 -30.1304 -30.1286 -30.0913 -30.0908
   -30.0042 -29.9846 -29.9835 -29.9775 -29.9766 -29.9627 -29.9416 -29.9273
   -27.6882 -27.6843 -27.6786 -27.6637 -27.6637 -27.6512 -27.6508 -27.6506
   -27.5592 -27.5592 -27.5361 -27.5166  15.5240  16.5494  16.5508  17.3040
    17.3202  17.4625  17.7974  17.8395  17.8407  18.0003  18.0284  18.0287
    18.1408  18.2805  18.2808  18.4631  18.8365  18.8403  19.1793  19.3111
    19.5073  19.5081  19.6395  19.7986  20.2580  20.4468  20.4554  20.5612
    20.8292  20.8348  20.9463  21.1640  21.2216  21.2970  21.3014  21.3458
    21.7011  21.8704  21.8720  22.2493  22.3997  22.4214  22.4221  22.7868
    27.5647  29.0522  29.0578  29.5751  29.6046  29.7269  29.7922  31.8302
    32.3219  32.4242  33.5615  33.5870  35.3856  35.7315  35.7370  36.1943

          k = 0.1423 0.2754-0.2757 ( 16163 PWs)   bands (ev):

   -75.9034 -75.8974 -75.8915 -75.8854 -61.9244 -61.9153 -61.9066 -61.8975
   -44.2952 -44.2948 -44.2945 -44.2940 -44.2921 -44.2916 -44.2911 -44.2903
   -44.2903 -44.2897 -44.2893 -44.2888 -44.2697 -44.2696 -44.2695 -44.2694
   -44.2658 -44.2657 -44.2657 -44.2656 -44.2610 -44.2608 -44.2608 -44.2606
   -44.2606 -44.2604 -44.2603 -44.2600 -30.1423 -30.1184 -30.1071 -30.0576
   -30.0111 -30.0029 -29.9917 -29.9752 -29.9643 -29.9588 -29.9496 -29.9200
   -27.6935 -27.6843 -27.6731 -27.6664 -27.6662 -27.6596 -27.6514 -27.6249
   -27.5850 -27.5469 -27.5370 -27.5136  15.8215  15.8454  16.9330  17.3785
    17.5255  17.5498  17.6210  17.6262  17.6710  18.0233  18.0807  18.1270
    18.1784  18.2960  18.3776  18.4174  18.7386  18.9652  19.0952  19.3059
    19.4130  19.5628  19.6536  19.8443  20.2628  20.3941  20.4832  20.5714
    20.7725  20.8835  20.9980  21.1196  21.1891  21.1968  21.4178  21.4536
    21.5797  21.8325  21.9957  22.1997  22.3595  22.4768  22.5024  22.6698
    27.9851  28.1243  29.1374  29.5376  29.5893  29.8042  30.2989  32.0748
    32.2000  32.2851  33.2420  33.8452  35.3119  35.5342  35.9972  36.2222

          k = 0.1426 0.2754-0.1379 ( 16181 PWs)   bands (ev):

   -75.9021 -75.9000 -75.8888 -75.8867 -61.9224 -61.9193 -61.9027 -61.8995
   -44.2951 -44.2949 -44.2943 -44.2941 -44.2921 -44.2917 -44.2909 -44.2904
   -44.2903 -44.2898 -44.2892 -44.2888 -44.2697 -44.2696 -44.2695 -44.2694
   -44.2658 -44.2657 -44.2657 -44.2656 -44.2610 -44.2608 -44.2608 -44.2606
   -44.2606 -44.2604 -44.2602 -44.2600 -30.1455 -30.1376 -30.0784 -30.0464
   -30.0226 -30.0030 -29.9993 -29.9877 -29.9692 -29.9677 -29.9298 -29.9192
   -27.6935 -27.6870 -27.6794 -27.6690 -27.6562 -27.6535 -27.6417 -27.6125
   -27.5963 -27.5687 -27.5210 -27.5135  15.2120  15.8144  16.9871  17.2338
    17.2631  17.3483  17.4443  17.4862  17.6715  17.7112  17.7188  17.9081
    17.9601  18.3690  18.6682  18.6798  19.1027  19.3925  19.4091  19.5267
    19.6390  19.8368  19.8649  19.9121  19.9566  20.2951  20.5584  20.6230
    20.7450  20.8506  20.9989  21.2293  21.2713  21.3638  21.3884  21.7128
    22.1078  22.1503  22.2405  22.4627  22.4795  22.4831  22.7712  23.2695
    26.7714  27.1687  27.6540  28.4303  28.7965  30.5833  30.7082  31.1083
    33.3762  34.1782  34.3519  34.7121  34.7358  35.4352  35.6359  36.4196

          k = 0.1429-0.2750 0.0000 ( 16190 PWs)   bands (ev):

   -75.9021 -75.9000 -75.8888 -75.8868 -61.9224 -61.9193 -61.9027 -61.8996
   -44.2951 -44.2949 -44.2943 -44.2941 -44.2921 -44.2917 -44.2909 -44.2904
   -44.2903 -44.2898 -44.2892 -44.2888 -44.2697 -44.2696 -44.2695 -44.2694
   -44.2658 -44.2657 -44.2657 -44.2656 -44.2610 -44.2608 -44.2608 -44.2606
   -44.2606 -44.2604 -44.2602 -44.2600 -30.1460 -30.1380 -30.0802 -30.0450
   -30.0239 -30.0063 -29.9981 -29.9868 -29.9720 -29.9652 -29.9293 -29.9199
   -27.6928 -27.6867 -27.6732 -27.6730 -27.6555 -27.6535 -27.6398 -27.6138
   -27.5949 -27.5691 -27.5214 -27.5127  14.9521  15.7904  16.9262  17.0729
    17.1226  17.3064  17.4054  17.4278  17.4502  17.4788  17.6382  17.9968
    18.0981  18.3183  18.8143  18.9185  19.2543  19.3521  19.4959  19.6327
    19.6843  19.6984  19.7215  20.2562  20.3121  20.4993  20.6585  20.7072
    20.7396  20.7692  20.7976  21.1374  21.2310  21.3904  21.3992  21.6873
    22.0925  22.2378  22.3333  22.3764  22.5255  22.6753  24.5718  24.7094
    25.1929  25.2742  26.8133  28.0900  28.7511  30.6596  32.1080  32.2602
    32.3419  32.4057  34.2788  34.9964  35.0602  35.4536  36.4666  36.5573

          k = 0.1431-0.2750 0.1379 ( 16188 PWs)   bands (ev):

   -75.9021 -75.9000 -75.8889 -75.8867 -61.9224 -61.9193 -61.9027 -61.8995
   -44.2951 -44.2949 -44.2943 -44.2941 -44.2921 -44.2917 -44.2908 -44.2904
   -44.2903 -44.2898 -44.2892 -44.2888 -44.2697 -44.2696 -44.2695 -44.2694
   -44.2658 -44.2657 -44.2657 -44.2656 -44.2610 -44.2608 -44.2608 -44.2606
   -44.2606 -44.2604 -44.2602 -44.2600 -30.1460 -30.1372 -30.0779 -30.0468
   -30.0238 -30.0015 -29.9984 -29.9890 -29.9691 -29.9677 -29.9299 -29.9191
   -27.6943 -27.6861 -27.6796 -27.6687 -27.6567 -27.6531 -27.6416 -27.6127
   -27.5966 -27.5684 -27.5209 -27.5136  15.2095  15.8182  16.9781  17.2315
    17.2587  17.3519  17.4481  17.4907  17.6731  17.7111  17.7272  17.9066
    17.9628  18.3705  18.6663  18.6811  19.1000  19.3824  19.4099  19.5247
    19.6284  19.8475  19.8652  19.9267  19.9580  20.2947  20.5494  20.6238
    20.7460  20.8416  20.9874  21.2389  21.2719  21.3646  21.3872  21.7078
    22.1072  22.1445  22.2413  22.4615  22.4880  22.4902  22.7742  23.2634
    26.7744  27.1738  27.6661  28.4101  28.7934  30.5932  30.7491  31.1204
    33.3619  34.1556  34.3156  34.6737  34.7364  35.4319  35.6275  36.4044

          k = 0.1434-0.2749 0.2757 ( 16155 PWs)   bands (ev):

   -75.9034 -75.8974 -75.8915 -75.8854 -61.9244 -61.9153 -61.9066 -61.8975
   -44.2952 -44.2948 -44.2945 -44.2941 -44.2921 -44.2916 -44.2911 -44.2903
   -44.2903 -44.2897 -44.2893 -44.2888 -44.2697 -44.2696 -44.2695 -44.2694
   -44.2658 -44.2657 -44.2657 -44.2656 -44.2610 -44.2608 -44.2608 -44.2606
   -44.2606 -44.2604 -44.2603 -44.2600 -30.1428 -30.1179 -30.1067 -30.0580
   -30.0115 -30.0028 -29.9914 -29.9751 -29.9643 -29.9589 -29.9497 -29.9199
   -27.6941 -27.6843 -27.6721 -27.6665 -27.6653 -27.6603 -27.6518 -27.6250
   -27.5851 -27.5469 -27.5370 -27.5136  15.8220  15.8450  16.9328  17.3782
    17.5253  17.5503  17.6210  17.6265  17.6711  18.0236  18.0813  18.1268
    18.1776  18.2962  18.3769  18.4176  18.7396  18.9660  19.0945  19.3055
    19.4124  19.5622  19.6547  19.8437  20.2626  20.3955  20.4841  20.5706
    20.7720  20.8839  20.9972  21.1198  21.1887  21.1969  21.4181  21.4529
    21.5793  21.8326  21.9958  22.2000  22.3590  22.4769  22.5024  22.6702
    27.9823  28.1260  29.1372  29.5377  29.5913  29.8061  30.3006  32.0781
    32.2002  32.2818  33.2403  33.8442  35.3138  35.5331  35.9939  36.2216

          k = 0.1423-0.2752-0.2757 ( 16162 PWs)   bands (ev):

   -75.9039 -75.8944 -75.8944 -75.8849 -61.9251 -61.9110 -61.9109 -61.8968
   -44.2952 -44.2946 -44.2946 -44.2940 -44.2921 -44.2914 -44.2913 -44.2904
   -44.2902 -44.2895 -44.2894 -44.2889 -44.2697 -44.2696 -44.2695 -44.2694
   -44.2658 -44.2657 -44.2657 -44.2656 -44.2610 -44.2608 -44.2608 -44.2606
   -44.2605 -44.2604 -44.2603 -44.2600 -30.1305 -30.1286 -30.0911 -30.0907
   -30.0044 -29.9846 -29.9835 -29.9775 -29.9767 -29.9627 -29.9414 -29.9273
   -27.6879 -27.6841 -27.6786 -27.6652 -27.6642 -27.6513 -27.6502 -27.6495
   -27.5592 -27.5591 -27.5362 -27.5166  15.5198  16.5548  16.5568  17.3010
    17.3193  17.4605  17.7898  17.8427  17.8436  17.9954  18.0273  18.0276
    18.1348  18.2919  18.2924  18.4613  18.8224  18.8256  19.1902  19.3181
    19.5143  19.5146  19.6203  19.8101  20.2680  20.4308  20.4399  20.5692
    20.8300  20.8344  20.9551  21.1646  21.2165  21.3051  21.3102  21.3457
    21.7054  21.8676  21.8694  22.2489  22.4073  22.4156  22.4165  22.7865
    27.5941  29.0421  29.0426  29.5649  29.5935  29.7178  29.7524  31.8197
    32.3227  32.4319  33.5836  33.6085  35.3709  35.7474  35.7484  36.2310

          k = 0.1426-0.2751-0.1379 ( 16186 PWs)   bands (ev):

   -75.9034 -75.8974 -75.8915 -75.8854 -61.9244 -61.9153 -61.9066 -61.8975
   -44.2952 -44.2948 -44.2945 -44.2940 -44.2921 -44.2916 -44.2911 -44.2903
   -44.2903 -44.2897 -44.2893 -44.2888 -44.2697 -44.2696 -44.2695 -44.2694
   -44.2658 -44.2657 -44.2657 -44.2656 -44.2610 -44.2608 -44.2608 -44.2606
   -44.2606 -44.2604 -44.2603 -44.2600 -30.1432 -30.1190 -30.1084 -30.0586
   -30.0105 -30.0061 -29.9921 -29.9770 -29.9630 -29.9585 -29.9493 -29.9205
   -27.6924 -27.6791 -27.6732 -27.6678 -27.6643 -27.6582 -27.6515 -27.6234
   -27.5854 -27.5468 -27.5372 -27.5129  15.1002  16.0564  17.0463  17.0592
    17.1331  17.3550  17.3945  17.5983  17.6029  17.6924  17.8140  17.9808
    18.1429  18.2051  18.5288  18.7491  19.1561  19.1965  19.5128  19.5275
    19.5980  19.8497  19.9190  19.9263  20.0005  20.2536  20.5530  20.6284
    20.7704  20.8145  20.9970  21.1747  21.2347  21.4201  21.4647  21.6924
    22.0899  22.2527  22.2873  22.2883  22.3158  22.7007  22.7139  23.3175
    26.9863  27.0357  27.6103  28.4811  28.8891  30.3513  30.3611  31.4860
    33.0690  34.4993  34.5193  34.5683  35.0008  35.2714  35.6913  36.3950

          k = 0.1429-0.1374 0.0000 ( 16194 PWs)   bands (ev):

   -75.9035 -75.8973 -75.8915 -75.8854 -61.9244 -61.9153 -61.9066 -61.8976
   -44.2952 -44.2948 -44.2945 -44.2940 -44.2921 -44.2916 -44.2911 -44.2903
   -44.2903 -44.2897 -44.2893 -44.2888 -44.2697 -44.2696 -44.2695 -44.2694
   -44.2658 -44.2657 -44.2657 -44.2656 -44.2610 -44.2608 -44.2608 -44.2606
   -44.2606 -44.2604 -44.2603 -44.2600 -30.1444 -30.1202 -30.1104 -30.0601
   -30.0102 -30.0097 -29.9929 -29.9799 -29.9610 -29.9588 -29.9490 -29.9214
   -27.6907 -27.6716 -27.6710 -27.6693 -27.6619 -27.6577 -27.6509 -27.6219
   -27.5861 -27.5465 -27.5373 -27.5119  14.3332  16.5424  16.5969  16.7906
    16.8661  17.0551  17.0592  17.1336  17.3189  17.5134  17.5430  18.4489
    18.7115  18.8002  18.8590  19.0969  19.1024  19.2255  19.3701  19.4518
    19.5041  19.5272  19.7069  20.1216  20.1810  20.2162  20.8801  20.9954
    21.0194  21.3548  21.3660  21.5857  21.6940  21.7269  21.7812  21.8741
    21.9575  22.0159  22.4239  22.5774  22.6459  22.7118  24.1275  24.3491
    25.1512  25.7714  25.7849  26.1342  30.1724  31.5986  32.0054  32.1017
    32.3411  33.3249  33.7911  33.8888  34.3729  34.9467  35.2943  35.6424

          k = 0.1431-0.1373 0.1379 ( 16171 PWs)   bands (ev):

   -75.9021 -75.9000 -75.8888 -75.8868 -61.9224 -61.9193 -61.9026 -61.8996
   -44.2951 -44.2949 -44.2943 -44.2941 -44.2921 -44.2917 -44.2909 -44.2904
   -44.2903 -44.2898 -44.2892 -44.2888 -44.2697 -44.2696 -44.2695 -44.2694
   -44.2658 -44.2657 -44.2657 -44.2656 -44.2610 -44.2608 -44.2608 -44.2606
   -44.2606 -44.2604 -44.2602 -44.2600 -30.1463 -30.1383 -30.0812 -30.0442
   -30.0244 -30.0065 -29.9976 -29.9881 -29.9739 -29.9636 -29.9290 -29.9204
   -27.6924 -27.6862 -27.6753 -27.6693 -27.6551 -27.6540 -27.6381 -27.6148
   -27.5945 -27.5693 -27.5216 -27.5123  14.5775  16.3243  16.7451  16.9011
    16.9836  17.1309  17.2197  17.2854  17.4018  17.7004  17.7051  18.0881
    18.3839  18.5383  18.9135  19.0315  19.1030  19.2685  19.2703  19.3146
    19.5126  19.6174  19.9773  20.0677  20.3528  20.4001  20.7140  20.8530
    20.8721  21.0731  21.1380  21.3826  21.4664  21.7854  21.8789  21.8940
    22.1136  22.1243  22.1541  22.4607  22.5412  22.5434  22.8630  24.2268
    25.7012  25.8326  26.8250  27.3423  29.7721  30.9284  30.9516  32.5707
    32.8884  33.7513  34.1480  34.2082  34.8294  35.2795  35.3297  35.6781

          k = 0.1434-0.1373 0.2757 ( 16180 PWs)   bands (ev):

   -75.9021 -75.9000 -75.8889 -75.8867 -61.9224 -61.9193 -61.9027 -61.8995
   -44.2951 -44.2949 -44.2943 -44.2941 -44.2921 -44.2917 -44.2908 -44.2904
   -44.2903 -44.2898 -44.2892 -44.2888 -44.2697 -44.2696 -44.2695 -44.2694
   -44.2658 -44.2657 -44.2657 -44.2656 -44.2610 -44.2608 -44.2608 -44.2606
   -44.2606 -44.2604 -44.2602 -44.2600 -30.1460 -30.1371 -30.0779 -30.0467
   -30.0228 -30.0020 -29.9992 -29.9886 -29.9691 -29.9677 -29.9299 -29.9191
   -27.6942 -27.6863 -27.6795 -27.6693 -27.6569 -27.6531 -27.6417 -27.6125
   -27.5963 -27.5685 -27.5209 -27.5135  15.2150  15.8175  16.9887  17.2357
    17.2686  17.3502  17.4446  17.4902  17.6721  17.7124  17.7244  17.9081
    17.9617  18.3702  18.6708  18.6809  19.0954  19.3899  19.4045  19.5241
    19.6337  19.8487  19.8622  19.9220  19.9531  20.2937  20.5578  20.6150
    20.7376  20.8522  20.9919  21.2274  21.2694  21.3621  21.3818  21.7106
    22.1079  22.1517  22.2356  22.4622  22.4793  22.4807  22.7644  23.2687
    26.7528  27.1695  27.6381  28.4415  28.8194  30.5875  30.7080  31.1454
    33.3905  34.1709  34.3295  34.7137  34.7187  35.4417  35.6117  36.4160

          k = 0.1423-0.1375-0.2757 ( 16182 PWs)   bands (ev):

   -75.9034 -75.8973 -75.8915 -75.8854 -61.9244 -61.9153 -61.9066 -61.8975
   -44.2952 -44.2948 -44.2945 -44.2941 -44.2921 -44.2916 -44.2911 -44.2903
   -44.2903 -44.2897 -44.2893 -44.2888 -44.2697 -44.2696 -44.2695 -44.2694
   -44.2658 -44.2657 -44.2657 -44.2656 -44.2610 -44.2608 -44.2608 -44.2606
   -44.2606 -44.2604 -44.2603 -44.2600 -30.1437 -30.1185 -30.1079 -30.0588
   -30.0109 -30.0058 -29.9919 -29.9769 -29.9630 -29.9587 -29.9494 -29.9205
   -27.6929 -27.6792 -27.6718 -27.6684 -27.6638 -27.6595 -27.6515 -27.6232
   -27.5855 -27.5467 -27.5371 -27.5130  15.1023  16.0619  17.0481  17.0594
    17.1348  17.3594  17.3944  17.5998  17.6115  17.6951  17.8143  17.9818
    18.1434  18.2072  18.5301  18.7515  19.1476  19.1940  19.5080  19.5275
    19.5906  19.8632  19.9159  19.9345  19.9973  20.2532  20.5508  20.6213
    20.7596  20.8187  20.9896  21.1731  21.2333  21.4173  21.4602  21.6895
    22.0905  22.2529  22.2862  22.2888  22.3100  22.6943  22.7135  23.3169
    26.9875  27.0116  27.5977  28.4976  28.9096  30.3598  30.3629  31.5135
    33.0808  34.4803  34.5020  34.5475  34.9997  35.2884  35.6686  36.4065

          k = 0.1426-0.1375-0.1379 ( 16179 PWs)   bands (ev):

   -75.9039 -75.8944 -75.8944 -75.8850 -61.9251 -61.9110 -61.9109 -61.8969
   -44.2952 -44.2946 -44.2946 -44.2940 -44.2921 -44.2914 -44.2913 -44.2904
   -44.2902 -44.2895 -44.2894 -44.2889 -44.2697 -44.2696 -44.2695 -44.2694
   -44.2658 -44.2657 -44.2657 -44.2656 -44.2610 -44.2608 -44.2608 -44.2606
   -44.2605 -44.2604 -44.2603 -44.2600 -30.1321 -30.1307 -30.0926 -30.0923
   -30.0094 -29.9864 -29.9856 -29.9770 -29.9765 -29.9608 -29.9417 -29.9282
   -27.6858 -27.6758 -27.6752 -27.6656 -27.6646 -27.6507 -27.6480 -27.6472
   -27.5595 -27.5594 -27.5356 -27.5155  14.5328  16.7159  16.8102  16.8152
    16.9127  17.0312  17.0671  17.1978  17.3431  17.7313  17.7371  18.3272
    18.3309  18.7014  18.7026  18.9686  19.1501  19.1535  19.3063  19.3068
    19.4584  19.6358  20.0261  20.0278  20.3730  20.3837  20.7134  20.8752
    20.8784  21.0659  21.1609  21.4150  21.4220  21.6845  21.9852  21.9875
    22.0437  22.1153  22.1807  22.2805  22.6417  22.6513  22.7609  24.2577
    25.7190  26.3497  26.3793  27.3440  30.2563  30.2608  30.6540  32.6326
    33.2936  33.9843  34.1890  34.3773  34.4026  35.2584  35.2682  35.5722

          k = 0.2857 0.0005 0.0000 ( 16170 PWs)   bands (ev):

   -75.9010 -75.8944 -75.8944 -75.8879 -61.9207 -61.9109 -61.9109 -61.9012
   -44.2951 -44.2946 -44.2946 -44.2942 -44.2920 -44.2918 -44.2915 -44.2905
   -44.2902 -44.2894 -44.2890 -44.2888 -44.2696 -44.2696 -44.2695 -44.2695
   -44.2658 -44.2657 -44.2657 -44.2656 -44.2610 -44.2608 -44.2608 -44.2606
   -44.2605 -44.2604 -44.2603 -44.2601 -30.1417 -30.1412 -30.1040 -30.1010
   -30.0026 -29.9894 -29.9892 -29.9718 -29.9660 -29.9603 -29.9313 -29.9312
   -27.6815 -27.6808 -27.6690 -27.6655 -27.6610 -27.6605 -27.6552 -27.6493
   -27.5615 -27.5395 -27.5244 -27.5243  14.8737  16.4577  16.4583  16.7953
    16.9044  16.9047  17.1417  17.1511  17.2341  17.3634  17.4142  18.8444
    19.0415  19.0425  19.2373  19.2379  19.2596  19.2608  19.4926  19.4931
    19.6427  19.6902  20.3985  20.4061  20.4644  20.4659  20.6118  20.7254
    20.7269  21.1216  21.5449  21.5912  21.7627  21.7790  21.9398  21.9409
    21.9831  22.0468  22.0776  22.0787  22.6122  22.6262  23.5750  23.5759
    24.0994  24.1007  27.9111  27.9439  29.2866  29.2893  30.9181  30.9211
    30.9911  31.1417  33.3228  33.3427  34.0728  34.1107  36.3339  36.4031

          k = 0.2860 0.0006 0.1379 ( 16179 PWs)   bands (ev):

   -75.9007 -75.8964 -75.8923 -75.8882 -61.9203 -61.9140 -61.9079 -61.9017
   -44.2950 -44.2947 -44.2945 -44.2942 -44.2920 -44.2918 -44.2915 -44.2906
   -44.2901 -44.2894 -44.2891 -44.2888 -44.2696 -44.2696 -44.2695 -44.2695
   -44.2658 -44.2657 -44.2657 -44.2656 -44.2610 -44.2608 -44.2608 -44.2606
   -44.2606 -44.2604 -44.2603 -44.2601 -30.1564 -30.1300 -30.1149 -30.0679
   -30.0024 -30.0004 -29.9927 -29.9838 -29.9672 -29.9572 -29.9372 -29.9151
   -27.6948 -27.6811 -27.6701 -27.6657 -27.6608 -27.6582 -27.6564 -27.6285
   -27.5807 -27.5451 -27.5257 -27.5113  15.0672  16.2602  16.7543  16.9482
    17.0077  17.0553  17.1908  17.1916  17.3619  17.5436  17.5895  18.7533
    18.8376  18.8432  18.9062  19.3037  19.4675  19.5860  19.6304  19.6928
    19.7082  19.7653  19.9624  20.0829  20.1254  20.1527  20.2619  20.3635
    20.6995  20.7104  21.1312  21.2987  21.4799  21.5049  21.6824  22.1367
    22.2493  22.2830  22.3716  22.4325  22.4535  22.4744  23.2035  24.1728
    24.2607  25.6360  27.3690  27.3956  28.3426  29.8661  30.5355  31.0750
    31.1053  32.3861  33.3013  33.3964  34.8176  35.4756  35.4885  36.7322

          k = 0.2862 0.0006 0.2757 ( 16173 PWs)   bands (ev):

   -75.8997 -75.8983 -75.8905 -75.8891 -61.9189 -61.9167 -61.9052 -61.9031
   -44.2950 -44.2948 -44.2945 -44.2942 -44.2921 -44.2918 -44.2912 -44.2908
   -44.2899 -44.2895 -44.2891 -44.2888 -44.2696 -44.2696 -44.2695 -44.2695
   -44.2658 -44.2657 -44.2657 -44.2656 -44.2610 -44.2608 -44.2608 -44.2606
   -44.2606 -44.2604 -44.2603 -44.2601 -30.1586 -30.1489 -30.0799 -30.0407
   -30.0294 -29.9978 -29.9949 -29.9913 -29.9767 -29.9709 -29.9182 -29.9105
   -27.7003 -27.6954 -27.6715 -27.6695 -27.6574 -27.6572 -27.6369 -27.6090
   -27.6000 -27.5713 -27.5123 -27.5072  15.5366  15.9862  17.1287  17.1708
    17.2170  17.2704  17.2722  17.3073  17.8279  17.9909  18.0797  18.3780
    18.5046  18.6211  18.9060  19.2299  19.3867  19.4449  19.5310  19.5371
    19.6517  19.6782  19.7138  19.7261  19.7285  19.9350  20.0841  20.2225
    20.2380  20.6742  20.8694  20.8997  21.0320  21.2146  21.4031  21.5004
    22.2840  22.2886  22.4017  22.4385  22.5831  22.6090  24.5388  25.2225
    25.2690  25.7185  26.3903  26.3986  29.1129  30.0687  30.3509  30.4368
    30.7463  32.3103  34.5794  35.1489  35.2567  36.9350  37.1951  37.2396

          k = 0.2852 0.0004-0.2757 ( 16186 PWs)   bands (ev):

   -75.8997 -75.8982 -75.8906 -75.8891 -61.9189 -61.9167 -61.9052 -61.9030
   -44.2950 -44.2948 -44.2944 -44.2942 -44.2921 -44.2918 -44.2912 -44.2909
   -44.2899 -44.2895 -44.2891 -44.2888 -44.2696 -44.2696 -44.2695 -44.2695
   -44.2658 -44.2657 -44.2657 -44.2656 -44.2610 -44.2608 -44.2608 -44.2606
   -44.2606 -44.2604 -44.2603 -44.2601 -30.1580 -30.1496 -30.0800 -30.0409
   -30.0292 -29.9977 -29.9948 -29.9913 -29.9769 -29.9708 -29.9182 -29.9106
   -27.7000 -27.6959 -27.6709 -27.6706 -27.6578 -27.6566 -27.6360 -27.6094
   -27.6000 -27.5713 -27.5124 -27.5072  15.5285  15.9953  17.1394  17.1637
    17.2256  17.2576  17.2767  17.3015  17.8267  17.9884  18.0781  18.3821
    18.5107  18.6280  18.8990  19.2300  19.4054  19.4459  19.5187  19.5354
    19.6388  19.6891  19.7096  19.7185  19.7385  19.9413  20.0781  20.2160
    20.2181  20.6767  20.8711  20.9165  21.0416  21.2231  21.3979  21.4913
    22.2774  22.2924  22.4082  22.4290  22.5920  22.5984  24.5491  25.2309
    25.2564  25.7045  26.3931  26.4142  29.1171  30.0467  30.2987  30.4458
    30.7664  32.3295  34.6305  35.1380  35.2247  36.8866  37.2259  37.2585

          k = 0.2854 0.0004-0.1379 ( 16186 PWs)   bands (ev):

   -75.9007 -75.8964 -75.8924 -75.8882 -61.9203 -61.9139 -61.9079 -61.9017
   -44.2950 -44.2947 -44.2945 -44.2942 -44.2920 -44.2918 -44.2914 -44.2906
   -44.2901 -44.2894 -44.2891 -44.2888 -44.2696 -44.2696 -44.2695 -44.2695
   -44.2658 -44.2657 -44.2657 -44.2656 -44.2610 -44.2608 -44.2608 -44.2606
   -44.2606 -44.2604 -44.2603 -44.2601 -30.1558 -30.1306 -30.1152 -30.0676
   -30.0043 -29.9986 -29.9925 -29.9840 -29.9672 -29.9573 -29.9371 -29.9151
   -27.6944 -27.6816 -27.6696 -27.6691 -27.6585 -27.6579 -27.6556 -27.6287
   -27.5808 -27.5452 -27.5258 -27.5113  15.0629  16.2660  16.7589  16.9461
    17.0102  17.0591  17.1819  17.1891  17.3605  17.5419  17.5890  18.7611
    18.8312  18.8579  18.9220  19.3209  19.4503  19.5711  19.6139  19.6920
    19.7036  19.7506  19.9606  20.0925  20.1306  20.1583  20.2508  20.3678
    20.7087  20.7128  21.1383  21.2990  21.4895  21.5045  21.6842  22.1308
    22.2401  22.2892  22.3629  22.4239  22.4545  22.4756  23.2084  24.1793
    24.2591  25.6311  27.3923  27.3950  28.3213  29.8403  30.5622  31.0270
    31.0989  32.4283  33.2852  33.3800  34.8433  35.4902  35.5377  36.7248

          k = 0.2857 0.1381 0.0000 ( 16180 PWs)   bands (ev):

   -75.9007 -75.8964 -75.8924 -75.8882 -61.9203 -61.9139 -61.9079 -61.9017
   -44.2950 -44.2947 -44.2945 -44.2942 -44.2920 -44.2918 -44.2914 -44.2906
   -44.2901 -44.2894 -44.2891 -44.2888 -44.2696 -44.2696 -44.2695 -44.2695
   -44.2658 -44.2657 -44.2657 -44.2656 -44.2610 -44.2608 -44.2608 -44.2606
   -44.2605 -44.2604 -44.2603 -44.2601 -30.1559 -30.1305 -30.1154 -30.0675
   -30.0025 -30.0002 -29.9925 -29.9843 -29.9672 -29.9570 -29.9372 -29.9151
   -27.6942 -27.6818 -27.6699 -27.6653 -27.6615 -27.6584 -27.6556 -27.6287
   -27.5807 -27.5453 -27.5258 -27.5112  15.0656  16.2576  16.7542  16.9443
    17.0081  17.0522  17.1889  17.1891  17.3635  17.5439  17.5901  18.7506
    18.8358  18.8440  18.9009  19.3169  19.4534  19.5983  19.6420  19.6802
    19.7048  19.7666  19.9646  20.0870  20.1260  20.1535  20.2544  20.3629
    20.7014  20.7100  21.1333  21.3039  21.4790  21.5042  21.6896  22.1380
    22.2480  22.2838  22.3640  22.4350  22.4581  22.4792  23.2005  24.1863
    24.2760  25.6156  27.3733  27.4021  28.3298  29.8830  30.5434  31.0762
    31.1052  32.3678  33.2956  33.3898  34.7737  35.4703  35.4866  36.7845

          k = 0.2860 0.1382 0.1379 ( 16162 PWs)   bands (ev):

   -75.9010 -75.8944 -75.8944 -75.8879 -61.9207 -61.9110 -61.9109 -61.9012
   -44.2951 -44.2946 -44.2946 -44.2942 -44.2920 -44.2918 -44.2915 -44.2905
   -44.2902 -44.2894 -44.2890 -44.2888 -44.2696 -44.2696 -44.2695 -44.2695
   -44.2658 -44.2657 -44.2657 -44.2656 -44.2610 -44.2608 -44.2608 -44.2606
   -44.2605 -44.2604 -44.2603 -44.2601 -30.1398 -30.1392 -30.1042 -30.0998
   -30.0012 -29.9868 -29.9865 -29.9729 -29.9678 -29.9596 -29.9315 -29.9314
   -27.6839 -27.6836 -27.6724 -27.6658 -27.6625 -27.6624 -27.6544 -27.6506
   -27.5601 -27.5403 -27.5242 -27.5241  15.2564  16.5280  16.5301  17.0843
    17.2082  17.2104  17.2556  17.3958  17.4728  17.4925  17.8223  18.6058
    18.6097  18.7956  19.0804  19.0866  19.5984  19.6458  19.6488  19.7312
    19.7400  19.7815  19.7974  19.8750  19.8824  20.0111  20.0165  20.0651
    20.0716  20.6018  21.2899  21.3141  21.6208  21.7638  21.7764  22.1075
    22.1090  22.1722  22.2705  22.3243  22.3259  22.4943  22.4975  23.8096
    25.7978  26.1028  26.1197  28.5925  28.6114  28.9729  29.6312  32.2582
    32.3451  32.3653  32.9724  34.1893  34.7079  35.5507  35.5867  36.9156

          k = 0.2862 0.1382 0.2757 ( 16179 PWs)   bands (ev):

   -75.9007 -75.8964 -75.8924 -75.8882 -61.9203 -61.9140 -61.9079 -61.9017
   -44.2950 -44.2947 -44.2945 -44.2942 -44.2920 -44.2918 -44.2915 -44.2906
   -44.2901 -44.2894 -44.2891 -44.2888 -44.2696 -44.2696 -44.2695 -44.2695
   -44.2658 -44.2657 -44.2657 -44.2656 -44.2610 -44.2608 -44.2608 -44.2606
   -44.2605 -44.2604 -44.2603 -44.2601 -30.1534 -30.1301 -30.1117 -30.0667
   -30.0031 -29.9995 -29.9894 -29.9792 -29.9704 -29.9578 -29.9367 -29.9154
   -27.6988 -27.6806 -27.6745 -27.6690 -27.6632 -27.6613 -27.6556 -27.6300
   -27.5789 -27.5446 -27.5265 -27.5110  15.7175  16.2397  17.0119  17.3207
    17.4289  17.4526  17.4602  17.4928  17.8908  17.9077  18.2428  18.3773
    18.4047  18.6168  18.7543  19.0190  19.0638  19.3163  19.3195  19.3240
    19.4570  19.5568  19.5757  19.6329  19.8201  19.8681  20.2380  20.3521
    20.3578  20.6698  20.8868  21.0116  21.0191  21.2903  21.6325  21.9449
    22.0223  22.0776  22.0945  22.2314  22.2807  22.3318  23.5122  24.6189
    24.8491  26.1071  27.2690  28.6368  28.6747  28.8821  29.7585  32.5067
    32.5301  32.7507  33.4691  34.6487  35.8583  36.0235  36.3747  37.0672

          k = 0.2852 0.1380-0.2757 ( 16181 PWs)   bands (ev):

   -75.8997 -75.8983 -75.8905 -75.8891 -61.9189 -61.9167 -61.9052 -61.9030
   -44.2950 -44.2948 -44.2945 -44.2942 -44.2921 -44.2918 -44.2912 -44.2908
   -44.2899 -44.2895 -44.2891 -44.2888 -44.2696 -44.2696 -44.2695 -44.2695
   -44.2658 -44.2657 -44.2657 -44.2656 -44.2610 -44.2608 -44.2608 -44.2606
   -44.2606 -44.2604 -44.2603 -44.2601 -30.1565 -30.1501 -30.0771 -30.0426
   -30.0282 -29.9978 -29.9934 -29.9921 -29.9748 -29.9723 -29.9177 -29.9110
   -27.7034 -27.6937 -27.6736 -27.6687 -27.6599 -27.6553 -27.6408 -27.6068
   -27.6015 -27.5703 -27.5129 -27.5068  15.7544  16.1097  17.2958  17.3542
    17.4060  17.4128  17.4269  17.4397  17.8632  18.0405  18.1619  18.2026
    18.5434  18.6063  18.7013  18.8832  19.0178  19.3096  19.3179  19.4074
    19.5327  19.5439  19.6238  19.6521  19.8051  19.8671  20.2350  20.3091
    20.3779  20.6813  20.9285  20.9669  21.0407  21.2834  21.6145  21.9565
    21.9914  22.0786  22.1772  22.1868  22.1998  22.3869  23.5417  24.5836
    25.0603  25.9168  27.2762  28.3621  28.5875  28.9033  30.3668  32.1225
    32.2455  33.0526  33.5061  34.8095  35.8202  35.8414  36.5000  37.1138

          k = 0.2854 0.1380-0.1379 ( 16168 PWs)   bands (ev):

   -75.8997 -75.8982 -75.8905 -75.8891 -61.9189 -61.9167 -61.9052 -61.9031
   -44.2950 -44.2948 -44.2944 -44.2942 -44.2921 -44.2918 -44.2912 -44.2909
   -44.2899 -44.2895 -44.2891 -44.2888 -44.2696 -44.2696 -44.2695 -44.2695
   -44.2658 -44.2657 -44.2657 -44.2656 -44.2610 -44.2608 -44.2608 -44.2606
   -44.2606 -44.2604 -44.2603 -44.2601 -30.1594 -30.1488 -30.0818 -30.0393
   -30.0298 -29.9980 -29.9959 -29.9913 -29.9792 -29.9685 -29.9186 -29.9103
   -27.6980 -27.6970 -27.6697 -27.6689 -27.6577 -27.6559 -27.6351 -27.6112
   -27.5992 -27.5721 -27.5120 -27.5075  15.2656  16.2166  17.0289  17.0755
    17.1520  17.2077  17.2158  17.3470  17.4326  17.5925  17.7900  18.4571
    18.7546  18.7795  18.9987  19.2250  19.3609  19.6328  19.6394  19.6682
    19.7378  19.7547  19.7654  19.9307  19.9631  19.9682  20.0472  20.0684
    20.1981  20.6119  21.2997  21.3576  21.5653  21.7471  21.7562  22.1045
    22.1416  22.1780  22.2098  22.2757  22.3608  22.4163  22.6813  23.9247
    25.8165  25.9234  26.2209  27.7034  28.9259  29.6031  29.7892  31.5390
    32.3715  32.8782  32.9014  34.1420  34.5625  35.6139  35.7356  37.0168

          k = 0.2857 0.2757 0.0000 ( 16178 PWs)   bands (ev):

   -75.8997 -75.8982 -75.8906 -75.8891 -61.9189 -61.9167 -61.9052 -61.9030
   -44.2950 -44.2948 -44.2944 -44.2942 -44.2921 -44.2918 -44.2912 -44.2909
   -44.2899 -44.2895 -44.2891 -44.2888 -44.2696 -44.2696 -44.2695 -44.2695
   -44.2658 -44.2657 -44.2657 -44.2656 -44.2610 -44.2608 -44.2608 -44.2606
   -44.2606 -44.2604 -44.2603 -44.2601 -30.1582 -30.1495 -30.0805 -30.0406
   -30.0291 -29.9978 -29.9946 -29.9924 -29.9759 -29.9709 -29.9183 -29.9106
   -27.6997 -27.6960 -27.6711 -27.6690 -27.6574 -27.6567 -27.6375 -27.6091
   -27.6000 -27.5715 -27.5123 -27.5072  15.5320  15.9817  17.1248  17.1623
    17.2106  17.2671  17.2676  17.3024  17.8282  17.9901  18.0799  18.3762
    18.5022  18.6172  18.9025  19.2305  19.3999  19.4470  19.5331  19.5492
    19.6343  19.6706  19.7167  19.7237  19.7260  19.9366  20.0973  20.2237
    20.2402  20.6838  20.8723  20.9009  21.0357  21.2203  21.4100  21.5005
    22.2878  22.2942  22.4101  22.4457  22.5877  22.6136  24.5349  25.2294
    25.2781  25.7104  26.3968  26.4071  29.0946  30.0871  30.3568  30.4440
    30.7441  32.2782  34.5529  35.1300  35.2386  36.9003  37.1945  37.2188

          k = 0.2860 0.2758 0.1379 ( 16188 PWs)   bands (ev):

   -75.9007 -75.8964 -75.8924 -75.8882 -61.9203 -61.9139 -61.9079 -61.9016
   -44.2950 -44.2947 -44.2945 -44.2942 -44.2920 -44.2918 -44.2914 -44.2906
   -44.2901 -44.2894 -44.2891 -44.2888 -44.2696 -44.2696 -44.2695 -44.2695
   -44.2658 -44.2657 -44.2657 -44.2656 -44.2610 -44.2608 -44.2608 -44.2606
   -44.2605 -44.2604 -44.2603 -44.2601 -30.1530 -30.1307 -30.1122 -30.0663
   -30.0040 -29.9985 -29.9892 -29.9798 -29.9704 -29.9575 -29.9367 -29.9155
   -27.6983 -27.6813 -27.6743 -27.6670 -27.6655 -27.6614 -27.6545 -27.6303
   -27.5789 -27.5447 -27.5265 -27.5110  15.7144  16.2364  17.0102  17.3170
    17.4234  17.4476  17.4540  17.4908  17.8912  17.9100  18.2420  18.3769
    18.4026  18.6160  18.7529  19.0180  19.0616  19.3198  19.3240  19.3273
    19.4553  19.5627  19.5829  19.6377  19.8052  19.8556  20.2468  20.3476
    20.3677  20.6765  20.8862  21.0189  21.0233  21.2928  21.6351  21.9485
    22.0236  22.0832  22.0986  22.2366  22.2833  22.3333  23.5095  24.6188
    24.8475  26.1009  27.2780  28.6333  28.6964  28.9047  29.7274  32.4730
    32.5480  32.7655  33.4471  34.6227  35.8303  36.0609  36.3539  37.1022

          k = 0.2862 0.2759 0.2757 ( 16188 PWs)   bands (ev):

   -75.9010 -75.8944 -75.8944 -75.8878 -61.9208 -61.9110 -61.9109 -61.9012
   -44.2951 -44.2946 -44.2946 -44.2942 -44.2920 -44.2918 -44.2915 -44.2905
   -44.2902 -44.2894 -44.2890 -44.2888 -44.2696 -44.2696 -44.2695 -44.2695
   -44.2658 -44.2657 -44.2657 -44.2656 -44.2610 -44.2608 -44.2608 -44.2606
   -44.2605 -44.2604 -44.2603 -44.2601 -30.1363 -30.1359 -30.1048 -30.0979
   -29.9995 -29.9824 -29.9822 -29.9744 -29.9708 -29.9585 -29.9319 -29.9319
   -27.6886 -27.6881 -27.6769 -27.6652 -27.6651 -27.6646 -27.6549 -27.6519
   -27.5585 -27.5417 -27.5239 -27.5238  16.1525  16.8212  16.8214  17.6222
    17.7674  17.7918  17.8896  17.8901  17.9388  18.1497  18.2341  18.2352
    18.4473  18.4555  18.4584  18.5340  18.6785  18.9573  18.9628  18.9870
    19.1489  19.2004  19.2055  19.4076  20.2908  20.3042  20.3162  20.4997
    20.6313  20.6374  20.8020  21.0896  21.1055  21.2150  21.2207  21.2233
    21.7610  21.9751  21.9855  21.9887  22.1729  22.6943  22.6972  23.5544
    25.5020  26.8123  26.8159  27.7874  30.5029  30.5341  31.1462  32.1771
    33.0316  33.6460  34.3137  34.3444  34.8702  34.9962  35.0198  36.2349

          k = 0.2852 0.2756-0.2757 ( 16183 PWs)   bands (ev):

   -75.9006 -75.8964 -75.8924 -75.8882 -61.9203 -61.9140 -61.9079 -61.9016
   -44.2950 -44.2947 -44.2945 -44.2942 -44.2920 -44.2918 -44.2915 -44.2906
   -44.2901 -44.2894 -44.2891 -44.2888 -44.2696 -44.2696 -44.2695 -44.2695
   -44.2658 -44.2657 -44.2657 -44.2656 -44.2610 -44.2608 -44.2608 -44.2606
   -44.2605 -44.2604 -44.2603 -44.2601 -30.1516 -30.1303 -30.1096 -30.0660
   -30.0051 -29.9976 -29.9874 -29.9761 -29.9724 -29.9584 -29.9363 -29.9157
   -27.7016 -27.6801 -27.6764 -27.6690 -27.6670 -27.6630 -27.6545 -27.6313
   -27.5783 -27.5442 -27.5270 -27.5109  16.2987  16.3391  17.4138  17.5283
    17.7181  17.8752  17.8757  17.9177  18.0015  18.0030  18.0867  18.2065
    18.3825  18.3963  18.4546  18.5000  18.7424  18.9874  19.0396  19.0427
    19.1685  19.1830  19.1942  19.4090  20.2692  20.2928  20.3477  20.5105
    20.6092  20.6486  20.8349  21.0620  21.0954  21.1780  21.1985  21.2771
    21.8302  21.8535  21.9324  22.0873  22.1465  22.5897  22.8689  23.5221
    25.8784  26.0621  27.3411  27.5971  30.1011  31.0999  31.1038  32.2881
    32.9231  33.4623  34.3004  34.4046  34.5751  34.9709  35.4750  36.3981

          k = 0.2854 0.2757-0.1379 ( 16184 PWs)   bands (ev):

   -75.8997 -75.8983 -75.8905 -75.8891 -61.9189 -61.9167 -61.9052 -61.9030
   -44.2950 -44.2948 -44.2945 -44.2942 -44.2921 -44.2918 -44.2912 -44.2908
   -44.2899 -44.2895 -44.2891 -44.2888 -44.2696 -44.2696 -44.2695 -44.2695
   -44.2658 -44.2657 -44.2657 -44.2656 -44.2610 -44.2608 -44.2608 -44.2606
   -44.2606 -44.2604 -44.2603 -44.2601 -30.1564 -30.1502 -30.0770 -30.0432
   -30.0284 -29.9974 -29.9934 -29.9920 -29.9747 -29.9724 -29.9177 -29.9110
   -27.7036 -27.6936 -27.6729 -27.6691 -27.6599 -27.6550 -27.6405 -27.6073
   -27.6017 -27.5703 -27.5129 -27.5068  15.7561  16.0992  17.2902  17.3620
    17.4074  17.4132  17.4181  17.4234  17.8618  18.0389  18.1636  18.2009
    18.5438  18.6038  18.7026  18.8825  19.0179  19.3179  19.3196  19.4053
    19.5438  19.5495  19.6237  19.6502  19.7969  19.8546  20.2417  20.3217
    20.3841  20.6808  20.9278  20.9652  21.0364  21.2998  21.6125  21.9562
    21.9934  22.0830  22.1757  22.1910  22.1945  22.3928  23.5583  24.5861
    25.0575  25.9424  27.2593  28.3429  28.5898  28.8894  30.3549  32.0953
    32.2929  33.0900  33.5169  34.7418  35.7985  35.8631  36.4517  37.1623

          k = 0.2857-0.2748 0.0000 ( 16191 PWs)   bands (ev):

   -75.8997 -75.8983 -75.8905 -75.8891 -61.9189 -61.9167 -61.9052 -61.9031
   -44.2950 -44.2948 -44.2945 -44.2942 -44.2921 -44.2918 -44.2912 -44.2908
   -44.2899 -44.2895 -44.2891 -44.2888 -44.2696 -44.2696 -44.2695 -44.2695
   -44.2658 -44.2657 -44.2657 -44.2656 -44.2610 -44.2608 -44.2608 -44.2606
   -44.2606 -44.2604 -44.2603 -44.2601 -30.1586 -30.1491 -30.0798 -30.0416
   -30.0297 -29.9971 -29.9949 -29.9910 -29.9769 -29.9707 -29.9183 -29.9106
   -27.7006 -27.6952 -27.6703 -27.6701 -27.6572 -27.6568 -27.6365 -27.6098
   -27.6003 -27.5713 -27.5123 -27.5072  15.5251  15.9893  17.1352  17.1562
    17.2184  17.2529  17.2726  17.2982  17.8273  17.9881  18.0783  18.3793
    18.5074  18.6238  18.8964  19.2296  19.4175  19.4492  19.5316  19.5363
    19.6225  19.6809  19.7114  19.7195  19.7336  19.9424  20.0917  20.2201
    20.2210  20.6860  20.8722  20.9181  21.0435  21.2277  21.4052  21.4927
    22.2824  22.2972  22.4165  22.4365  22.5953  22.6044  24.5437  25.2396
    25.2644  25.6987  26.3982  26.4214  29.1010  30.0582  30.3033  30.4607
    30.7686  32.2940  34.5977  35.1232  35.2078  36.8571  37.2277  37.2328

          k = 0.2860-0.2747 0.1379 ( 16190 PWs)   bands (ev):

   -75.8997 -75.8983 -75.8906 -75.8891 -61.9189 -61.9167 -61.9052 -61.9030
   -44.2950 -44.2948 -44.2944 -44.2942 -44.2921 -44.2918 -44.2912 -44.2909
   -44.2899 -44.2895 -44.2891 -44.2888 -44.2696 -44.2696 -44.2695 -44.2695
   -44.2658 -44.2657 -44.2657 -44.2656 -44.2610 -44.2608 -44.2608 -44.2606
   -44.2606 -44.2604 -44.2603 -44.2601 -30.1560 -30.1507 -30.0776 -30.0424
   -30.0278 -29.9979 -29.9931 -29.9929 -29.9748 -29.9719 -29.9177 -29.9110
   -27.7028 -27.6943 -27.6734 -27.6684 -27.6601 -27.6548 -27.6412 -27.6069
   -27.6015 -27.5705 -27.5130 -27.5068  15.7524  16.1055  17.2926  17.3500
    17.4046  17.4062  17.4206  17.4365  17.8654  18.0425  18.1607  18.2012
    18.5443  18.6039  18.7009  18.8799  19.0166  19.3088  19.3232  19.4087
    19.5409  19.5523  19.6236  19.6564  19.7913  19.8528  20.2449  20.3109
    20.3834  20.6863  20.9263  20.9732  21.0460  21.2867  21.6164  21.9603
    21.9945  22.0814  22.1823  22.1936  22.2003  22.3897  23.5401  24.5817
    25.0563  25.9139  27.2847  28.3688  28.5866  28.9277  30.3496  32.0995
    32.2618  33.0546  33.4868  34.7791  35.8099  35.8451  36.4906  37.1467

          k = 0.2862-0.2746 0.2757 ( 16185 PWs)   bands (ev):

   -75.9006 -75.8964 -75.8924 -75.8882 -61.9203 -61.9140 -61.9080 -61.9016
   -44.2950 -44.2947 -44.2945 -44.2942 -44.2920 -44.2918 -44.2914 -44.2906
   -44.2901 -44.2894 -44.2891 -44.2888 -44.2696 -44.2696 -44.2695 -44.2695
   -44.2658 -44.2657 -44.2657 -44.2656 -44.2610 -44.2608 -44.2608 -44.2606
   -44.2605 -44.2604 -44.2603 -44.2601 -30.1511 -30.1308 -30.1100 -30.0656
   -30.0038 -29.9988 -29.9873 -29.9766 -29.9724 -29.9582 -29.9363 -29.9157
   -27.7009 -27.6808 -27.6764 -27.6712 -27.6650 -27.6634 -27.6539 -27.6313
   -27.5782 -27.5443 -27.5270 -27.5108  16.2998  16.3385  17.4132  17.5280
    17.7191  17.8751  17.8761  17.9169  18.0010  18.0030  18.0868  18.2070
    18.3825  18.3971  18.4541  18.4989  18.7424  18.9882  19.0387  19.0435
    19.1679  19.1831  19.1931  19.4104  20.2687  20.2918  20.3497  20.5095
    20.6073  20.6509  20.8335  21.0626  21.0957  21.1789  21.1988  21.2764
    21.8306  21.8539  21.9321  22.0878  22.1467  22.5897  22.8690  23.5206
    25.8755  26.0623  27.3412  27.6008  30.1031  31.1003  31.1062  32.2890
    32.9249  33.4590  34.2991  34.4022  34.5713  34.9702  35.4704  36.3955

          k = 0.2852-0.2749-0.2757 ( 16184 PWs)   bands (ev):

   -75.9010 -75.8944 -75.8944 -75.8878 -61.9208 -61.9110 -61.9109 -61.9012
   -44.2951 -44.2946 -44.2946 -44.2942 -44.2920 -44.2918 -44.2915 -44.2905
   -44.2902 -44.2894 -44.2890 -44.2888 -44.2696 -44.2696 -44.2695 -44.2695
   -44.2658 -44.2657 -44.2657 -44.2656 -44.2610 -44.2608 -44.2608 -44.2606
   -44.2605 -44.2604 -44.2603 -44.2601 -30.1362 -30.1358 -30.1049 -30.0979
   -30.0003 -29.9823 -29.9821 -29.9737 -29.9708 -29.9585 -29.9320 -29.9319
   -27.6895 -27.6885 -27.6765 -27.6651 -27.6644 -27.6638 -27.6553 -27.6522
   -27.5586 -27.5417 -27.5239 -27.5238  16.1436  16.8270  16.8289  17.6062
    17.7675  17.7876  17.8985  17.8988  17.9331  18.1416  18.2418  18.2423
    18.4445  18.4532  18.4561  18.5325  18.6942  18.9506  18.9558  19.0052
    19.1604  19.2007  19.2044  19.3846  20.2939  20.3047  20.3064  20.5149
    20.6282  20.6322  20.8216  21.0823  21.0955  21.2064  21.2228  21.2268
    21.7579  21.9762  21.9786  21.9821  22.1698  22.6946  22.6956  23.5787
    25.5345  26.8110  26.8141  27.7400  30.4710  30.5008  31.1295  32.1748
    33.0395  33.6630  34.3520  34.3846  34.8940  35.0448  35.0725  36.2595

          k = 0.2854-0.2748-0.1379 ( 16180 PWs)   bands (ev):

   -75.9006 -75.8964 -75.8924 -75.8882 -61.9203 -61.9140 -61.9079 -61.9017
   -44.2950 -44.2947 -44.2945 -44.2942 -44.2920 -44.2918 -44.2915 -44.2906
   -44.2901 -44.2894 -44.2891 -44.2888 -44.2696 -44.2696 -44.2695 -44.2695
   -44.2658 -44.2657 -44.2657 -44.2656 -44.2610 -44.2608 -44.2608 -44.2606
   -44.2605 -44.2604 -44.2603 -44.2601 -30.1533 -30.1303 -30.1116 -30.0669
   -30.0077 -29.9953 -29.9894 -29.9790 -29.9704 -29.9580 -29.9366 -29.9155
   -27.6994 -27.6803 -27.6736 -27.6709 -27.6616 -27.6610 -27.6549 -27.6305
   -27.5793 -27.5445 -27.5265 -27.5110  15.7052  16.2434  17.0213  17.3048
    17.4317  17.4435  17.4451  17.4976  17.8870  17.9078  18.2360  18.3861
    18.4102  18.6177  18.7481  19.0213  19.0644  19.3318  19.3358  19.3407
    19.4510  19.5381  19.5717  19.6471  19.7913  19.8735  20.2297  20.3421
    20.3562  20.6921  20.9037  21.0154  21.0171  21.2930  21.6399  21.9430
    22.0237  22.0807  22.0942  22.2267  22.2846  22.3239  23.5154  24.6472
    24.8754  26.0995  27.2744  28.5887  28.6601  28.8794  29.7028  32.4861
    32.6003  32.7881  33.4417  34.6709  35.8693  36.0752  36.3571  37.1436

          k = 0.2857-0.1371 0.0000 ( 16183 PWs)   bands (ev):

   -75.9007 -75.8964 -75.8923 -75.8882 -61.9203 -61.9140 -61.9079 -61.9017
   -44.2950 -44.2947 -44.2945 -44.2942 -44.2920 -44.2918 -44.2915 -44.2906
   -44.2901 -44.2894 -44.2891 -44.2888 -44.2696 -44.2696 -44.2695 -44.2695
   -44.2658 -44.2657 -44.2657 -44.2656 -44.2610 -44.2608 -44.2608 -44.2606
   -44.2606 -44.2604 -44.2603 -44.2601 -30.1563 -30.1301 -30.1148 -30.0680
   -30.0063 -29.9967 -29.9927 -29.9838 -29.9671 -29.9573 -29.9372 -29.9151
   -27.6951 -27.6809 -27.6695 -27.6671 -27.6596 -27.6580 -27.6561 -27.6288
   -27.5810 -27.5451 -27.5257 -27.5113  15.0620  16.2619  16.7592  16.9425
    17.0103  17.0555  17.1798  17.1880  17.3624  17.5424  17.5898  18.7564
    18.8303  18.8568  18.9156  19.3349  19.4358  19.5834  19.6236  19.6916
    19.6935  19.7541  19.9615  20.0976  20.1306  20.1585  20.2450  20.3656
    20.7094  20.7125  21.1396  21.3044  21.4886  21.5024  21.6911  22.1335
    22.2394  22.2894  22.3555  22.4279  22.4594  22.4799  23.2046  24.1932
    24.2734  25.6116  27.3953  27.3998  28.3133  29.8511  30.5750  31.0290
    31.1052  32.4038  33.2812  33.3749  34.7964  35.4802  35.5328  36.7780

          k = 0.2860-0.1371 0.1379 ( 16163 PWs)   bands (ev):

   -75.8997 -75.8982 -75.8905 -75.8891 -61.9189 -61.9167 -61.9052 -61.9031
   -44.2950 -44.2948 -44.2945 -44.2942 -44.2921 -44.2918 -44.2912 -44.2908
   -44.2899 -44.2895 -44.2891 -44.2888 -44.2696 -44.2696 -44.2695 -44.2695
   -44.2658 -44.2657 -44.2657 -44.2656 -44.2610 -44.2608 -44.2608 -44.2606
   -44.2606 -44.2604 -44.2603 -44.2601 -30.1599 -30.1483 -30.0814 -30.0397
   -30.0302 -29.9978 -29.9961 -29.9904 -29.9797 -29.9684 -29.9186 -29.9103
   -27.6986 -27.6964 -27.6695 -27.6690 -27.6581 -27.6556 -27.6351 -27.6113
   -27.5993 -27.5720 -27.5119 -27.5075  15.2662  16.2158  17.0288  17.0754
    17.1520  17.2084  17.2154  17.3470  17.4330  17.5928  17.7904  18.4561
    18.7552  18.7787  18.9975  19.2235  19.3605  19.6359  19.6386  19.6709
    19.7387  19.7550  19.7625  19.9303  19.9627  19.9701  20.0486  20.0678
    20.1975  20.6112  21.2990  21.3566  21.5655  21.7497  21.7540  22.1052
    22.1421  22.1781  22.2095  22.2756  22.3610  22.4172  22.6809  23.9233
    25.8143  25.9227  26.2220  27.7057  28.9259  29.6074  29.7916  31.5363
    32.3721  32.8788  32.8974  34.1417  34.5614  35.6149  35.7343  37.0123

          k = 0.2862-0.1370 0.2757 ( 16188 PWs)   bands (ev):

   -75.8997 -75.8983 -75.8906 -75.8891 -61.9189 -61.9167 -61.9052 -61.9030
   -44.2950 -44.2948 -44.2944 -44.2942 -44.2921 -44.2918 -44.2912 -44.2909
   -44.2899 -44.2895 -44.2891 -44.2888 -44.2696 -44.2696 -44.2695 -44.2695
   -44.2658 -44.2657 -44.2657 -44.2656 -44.2610 -44.2608 -44.2608 -44.2606
   -44.2606 -44.2604 -44.2603 -44.2601 -30.1559 -30.1507 -30.0773 -30.0426
   -30.0279 -29.9978 -29.9932 -29.9924 -29.9748 -29.9723 -29.9177 -29.9110
   -27.7030 -27.6942 -27.6731 -27.6698 -27.6603 -27.6548 -27.6401 -27.6070
   -27.6015 -27.5704 -27.5130 -27.5068  15.7597  16.1018  17.2925  17.3665
    17.4107  17.4203  17.4226  17.4266  17.8602  18.0370  18.1657  18.2010
    18.5429  18.6052  18.7039  18.8846  19.0169  19.3121  19.3199  19.4041
    19.5388  19.5429  19.6222  19.6454  19.8128  19.8658  20.2342  20.3182
    20.3823  20.6737  20.9272  20.9599  21.0317  21.2965  21.6098  21.9531
    21.9908  22.0815  22.1703  22.1843  22.1938  22.3915  23.5592  24.5848
    25.0569  25.9461  27.2517  28.3398  28.5965  28.8683  30.3765  32.1183
    32.2695  33.0836  33.5373  34.7652  35.8247  35.8397  36.4577  37.1236

          k = 0.2852-0.1373-0.2757 ( 16183 PWs)   bands (ev):

   -75.9007 -75.8964 -75.8924 -75.8882 -61.9203 -61.9139 -61.9079 -61.9016
   -44.2950 -44.2947 -44.2945 -44.2942 -44.2920 -44.2918 -44.2914 -44.2906
   -44.2901 -44.2894 -44.2891 -44.2888 -44.2696 -44.2696 -44.2695 -44.2695
   -44.2658 -44.2657 -44.2657 -44.2656 -44.2610 -44.2608 -44.2608 -44.2606
   -44.2605 -44.2604 -44.2603 -44.2601 -30.1528 -30.1307 -30.1119 -30.0664
   -30.0058 -29.9971 -29.9892 -29.9791 -29.9704 -29.9580 -29.9365 -29.9155
   -27.6986 -27.6810 -27.6738 -27.6732 -27.6615 -27.6596 -27.6546 -27.6303
   -27.5791 -27.5446 -27.5266 -27.5110  15.7075  16.2484  17.0225  17.3076
    17.4377  17.4474  17.4508  17.5009  17.8866  17.9059  18.2367  18.3873
    18.4120  18.6184  18.7492  19.0231  19.0657  19.3268  19.3314  19.3395
    19.4513  19.5324  19.5649  19.6431  19.8057  19.8855  20.2212  20.3438
    20.3474  20.6862  20.9038  21.0090  21.0145  21.2889  21.6379  21.9398
    22.0234  22.0746  22.0903  22.2211  22.2832  22.3220  23.5158  24.6470
    24.8773  26.1012  27.2688  28.5922  28.6434  28.8608  29.7317  32.5236
    32.5784  32.7658  33.4598  34.7024  35.8991  36.0333  36.3839  37.1074

          k = 0.2854-0.1372-0.1379 ( 16168 PWs)   bands (ev):

   -75.9010 -75.8944 -75.8944 -75.8879 -61.9207 -61.9110 -61.9109 -61.9012
   -44.2951 -44.2946 -44.2946 -44.2942 -44.2920 -44.2918 -44.2915 -44.2905
   -44.2902 -44.2894 -44.2890 -44.2888 -44.2696 -44.2696 -44.2695 -44.2695
   -44.2658 -44.2657 -44.2657 -44.2656 -44.2610 -44.2608 -44.2608 -44.2606
   -44.2605 -44.2604 -44.2603 -44.2601 -30.1395 -30.1391 -30.1044 -30.0998
   -30.0025 -29.9866 -29.9865 -29.9719 -29.9678 -29.9596 -29.9316 -29.9315
   -27.6854 -27.6842 -27.6718 -27.6645 -27.6622 -27.6613 -27.6553 -27.6506
   -27.5604 -27.5403 -27.5241 -27.5241  15.2489  16.5352  16.5383  17.0790
    17.2139  17.2161  17.2454  17.3946  17.4686  17.4882  17.8175  18.6217
    18.6247  18.7865  19.0943  19.1013  19.5733  19.6504  19.6543  19.7121
    19.7216  19.8006  19.8068  19.8618  19.8679  19.9987  20.0033  20.0755
    20.0833  20.6150  21.2997  21.3299  21.6194  21.7614  21.7729  22.0995
    22.1015  22.1682  22.2712  22.3140  22.3148  22.4995  22.5024  23.8316
    25.8302  26.1021  26.1170  28.5630  28.5768  28.9610  29.5751  32.2485
    32.3897  32.4151  32.9740  34.1993  34.7282  35.5234  35.5983  36.9707

          k = 0.4286 0.0007 0.0000 ( 16145 PWs)   bands (ev):

   -75.8968 -75.8944 -75.8944 -75.8921 -61.9145 -61.9109 -61.9108 -61.9075
   -44.2949 -44.2946 -44.2946 -44.2944 -44.2921 -44.2920 -44.2913 -44.2909
   -44.2899 -44.2896 -44.2888 -44.2887 -44.2696 -44.2696 -44.2695 -44.2695
   -44.2658 -44.2657 -44.2657 -44.2656 -44.2610 -44.2608 -44.2608 -44.2606
   -44.2605 -44.2604 -44.2603 -44.2601 -30.1686 -30.1681 -30.0619 -30.0559
   -30.0150 -30.0059 -29.9912 -29.9911 -29.9890 -29.9763 -29.9063 -29.9063
   -27.6995 -27.6989 -27.6664 -27.6618 -27.6589 -27.6587 -27.6339 -27.6144
   -27.5973 -27.5751 -27.5044 -27.5043  15.9530  16.1542  16.1548  16.6076
    16.6077  16.7788  17.6298  17.6381  17.7078  18.1145  18.1433  18.2791
    18.9744  18.9761  19.1411  19.1459  19.2248  19.2269  19.2454  19.2463
    19.4086  19.4101  20.2039  20.2191  20.2476  20.4431  20.9549  20.9741
    20.9876  21.0042  21.4044  21.7240  21.7753  21.7766  21.9223  21.9237
    22.2988  22.2996  22.5030  22.5037  22.6162  22.6209  22.9899  22.9908
    23.2646  23.2664  27.8897  27.8921  29.9054  29.9206  29.9934  29.9960
    30.7378  30.7749  31.7811  31.7870  33.8462  33.8626  37.8391  37.8424

          k = 0.4288 0.0008 0.1379 ( 16172 PWs)   bands (ev):

   -75.8966 -75.8951 -75.8936 -75.8922 -61.9143 -61.9120 -61.9098 -61.9076
   -44.2949 -44.2946 -44.2946 -44.2944 -44.2921 -44.2919 -44.2914 -44.2910
   -44.2898 -44.2895 -44.2889 -44.2887 -44.2696 -44.2696 -44.2695 -44.2695
   -44.2658 -44.2657 -44.2657 -44.2657 -44.2610 -44.2608 -44.2608 -44.2606
   -44.2605 -44.2604 -44.2603 -44.2601 -30.1686 -30.1535 -30.0967 -30.0513
   -30.0187 -29.9914 -29.9891 -29.9880 -29.9769 -29.9717 -29.9201 -29.9050
   -27.7018 -27.6895 -27.6671 -27.6619 -27.6613 -27.6586 -27.6561 -27.6201
   -27.5906 -27.5538 -27.5153 -27.5033  16.1005  16.1877  16.3640  16.7490
    16.7619  16.9209  17.7152  17.7248  17.8107  18.1529  18.1814  18.3346
    18.8775  18.8939  19.0329  19.0632  19.1501  19.2110  19.3066  19.3939
    19.5370  19.5527  19.7966  19.8886  20.0762  20.6532  20.7808  20.9040
    20.9592  20.9690  20.9866  21.0475  21.4444  21.5108  21.7020  21.9323
    22.1338  22.2015  22.2329  22.3775  22.4078  22.4105  22.5509  23.8045
    24.2480  24.2942  27.9995  28.4797  28.8792  28.8987  30.0870  30.1291
    30.1671  30.8814  33.0507  33.1124  34.9882  34.9957  36.6050  38.1329

          k = 0.4291 0.0009 0.2757 ( 16188 PWs)   bands (ev):

   -75.8963 -75.8958 -75.8930 -75.8925 -61.9138 -61.9130 -61.9089 -61.9081
   -44.2949 -44.2947 -44.2946 -44.2944 -44.2920 -44.2918 -44.2915 -44.2912
   -44.2896 -44.2893 -44.2890 -44.2887 -44.2696 -44.2696 -44.2695 -44.2695
   -44.2658 -44.2657 -44.2657 -44.2657 -44.2610 -44.2608 -44.2608 -44.2606
   -44.2605 -44.2604 -44.2603 -44.2601 -30.1548 -30.1295 -30.1264 -30.0911
   -29.9900 -29.9888 -29.9835 -29.9813 -29.9773 -29.9451 -29.9395 -29.9164
   -27.6962 -27.6801 -27.6737 -27.6686 -27.6640 -27.6617 -27.6599 -27.6476
   -27.5609 -27.5349 -27.5295 -27.5120  16.3155  16.3276  16.7449  17.0073
    17.1558  17.1900  17.6481  17.6913  18.1984  18.2383  18.4242  18.5706
    18.5828  18.7158  19.0246  19.1640  19.2619  19.3918  19.4723  19.4816
    19.5598  19.6458  19.7267  19.7453  19.7638  19.9160  19.9191  20.0523
    20.0891  20.1296  20.5990  20.6120  21.3777  21.7399  21.8903  21.9820
    22.1155  22.1807  22.2096  22.2750  22.2952  22.4662  22.6376  23.4544
    25.9102  25.9113  27.5603  27.5918  28.5807  28.7456  29.0710  29.0786
    31.4311  32.8828  33.8027  35.4025  35.6087  35.6553  36.8739  36.9307

          k = 0.4280 0.0006-0.2757 ( 16189 PWs)   bands (ev):

   -75.8963 -75.8957 -75.8930 -75.8925 -61.9138 -61.9129 -61.9089 -61.9081
   -44.2949 -44.2947 -44.2946 -44.2944 -44.2920 -44.2918 -44.2915 -44.2912
   -44.2896 -44.2893 -44.2890 -44.2888 -44.2696 -44.2696 -44.2695 -44.2695
   -44.2658 -44.2657 -44.2657 -44.2657 -44.2610 -44.2608 -44.2608 -44.2606
   -44.2605 -44.2604 -44.2603 -44.2601 -30.1543 -30.1301 -30.1266 -30.0909
   -29.9899 -29.9890 -29.9836 -29.9805 -29.9779 -29.9452 -29.9394 -29.9164
   -27.6955 -27.6813 -27.6766 -27.6667 -27.6615 -27.6607 -27.6605 -27.6492
   -27.5608 -27.5349 -27.5295 -27.5120  16.3202  16.3225  16.7443  17.0073
    17.1629  17.1907  17.6363  17.6875  18.1957  18.2408  18.4259  18.5795
    18.5807  18.7129  19.0319  19.1605  19.2744  19.4115  19.4555  19.4841
    19.5601  19.6337  19.7224  19.7345  19.7673  19.9109  19.9212  20.0474
    20.0862  20.1381  20.6039  20.6156  21.3864  21.7432  21.8869  21.9831
    22.1176  22.1766  22.2119  22.2723  22.2975  22.4580  22.6389  23.4475
    25.8895  25.9255  27.5861  27.5939  28.6138  28.7229  29.0297  29.0817
    31.4007  32.9268  33.8395  35.3574  35.6065  35.6189  36.9210  36.9309

          k = 0.4283 0.0007-0.1379 ( 16167 PWs)   bands (ev):

   -75.8967 -75.8951 -75.8937 -75.8922 -61.9143 -61.9119 -61.9098 -61.9076
   -44.2949 -44.2947 -44.2946 -44.2944 -44.2921 -44.2919 -44.2914 -44.2910
   -44.2898 -44.2895 -44.2889 -44.2887 -44.2696 -44.2696 -44.2695 -44.2695
   -44.2658 -44.2657 -44.2657 -44.2657 -44.2610 -44.2608 -44.2608 -44.2606
   -44.2605 -44.2604 -44.2603 -44.2601 -30.1681 -30.1540 -30.0972 -30.0511
   -30.0183 -29.9912 -29.9896 -29.9882 -29.9770 -29.9713 -29.9202 -29.9050
   -27.7013 -27.6905 -27.6665 -27.6636 -27.6607 -27.6590 -27.6545 -27.6204
   -27.5905 -27.5539 -27.5154 -27.5032  16.0962  16.1915  16.3642  16.7489
    16.7641  16.9216  17.7097  17.7243  17.8095  18.1494  18.1754  18.3341
    18.8800  18.9076  19.0367  19.0729  19.1625  19.2264  19.2954  19.3776
    19.5341  19.5360  19.7911  19.8933  20.0666  20.6600  20.7920  20.9026
    20.9649  20.9682  20.9791  21.0552  21.4566  21.5163  21.6990  21.9322
    22.1347  22.2036  22.2257  22.3747  22.4084  22.4099  22.5397  23.7966
    24.2347  24.3074  28.0050  28.4622  28.8966  28.9231  30.0811  30.1152
    30.1225  30.9109  33.0638  33.0894  34.9878  35.0222  36.6407  38.0896

          k = 0.4286 0.1384 0.0000 ( 16177 PWs)   bands (ev):

   -75.8967 -75.8951 -75.8937 -75.8922 -61.9143 -61.9119 -61.9098 -61.9076
   -44.2949 -44.2947 -44.2946 -44.2944 -44.2921 -44.2919 -44.2914 -44.2910
   -44.2898 -44.2895 -44.2889 -44.2887 -44.2696 -44.2696 -44.2695 -44.2695
   -44.2658 -44.2657 -44.2657 -44.2657 -44.2610 -44.2608 -44.2608 -44.2606
   -44.2605 -44.2604 -44.2603 -44.2601 -30.1681 -30.1540 -30.0972 -30.0510
   -30.0182 -29.9912 -29.9894 -29.9883 -29.9770 -29.9716 -29.9201 -29.9050
   -27.7012 -27.6899 -27.6668 -27.6626 -27.6611 -27.6589 -27.6554 -27.6202
   -27.5906 -27.5539 -27.5154 -27.5032  16.0982  16.1863  16.3624  16.7488
    16.7608  16.9172  17.7133  17.7227  17.8125  18.1503  18.1790  18.3350
    18.8713  18.8832  19.0372  19.0671  19.1416  19.2212  19.3204  19.3845
    19.5412  19.5612  19.7885  19.8856  20.0870  20.6624  20.7774  20.8993
    20.9587  20.9694  20.9929  21.0471  21.4352  21.5127  21.6964  21.9334
    22.1285  22.2065  22.2388  22.3851  22.4109  22.4136  22.5566  23.7958
    24.2543  24.2961  27.9979  28.4947  28.8872  28.9101  30.0800  30.1281
    30.1687  30.8669  33.0404  33.1044  34.9807  34.9912  36.5638  38.0936

          k = 0.4288 0.1384 0.1379 ( 16172 PWs)   bands (ev):

   -75.8968 -75.8944 -75.8944 -75.8921 -61.9144 -61.9109 -61.9109 -61.9075
   -44.2949 -44.2946 -44.2946 -44.2944 -44.2921 -44.2920 -44.2913 -44.2909
   -44.2899 -44.2896 -44.2888 -44.2887 -44.2696 -44.2696 -44.2695 -44.2695
   -44.2658 -44.2657 -44.2657 -44.2656 -44.2610 -44.2608 -44.2608 -44.2606
   -44.2605 -44.2604 -44.2603 -44.2601 -30.1658 -30.1653 -30.0634 -30.0549
   -30.0164 -30.0051 -29.9901 -29.9874 -29.9872 -29.9782 -29.9064 -29.9064
   -27.7033 -27.7028 -27.6672 -27.6618 -27.6617 -27.6609 -27.6321 -27.6157
   -27.5948 -27.5761 -27.5044 -27.5044  16.2763  16.3892  16.3893  16.9103
    16.9110  17.1081  17.7101  17.8820  17.9172  18.1606  18.3026  18.3820
    18.7550  18.8258  18.8280  19.0733  19.1143  19.1235  19.4788  19.5127
    19.5203  19.5870  19.6141  19.6215  20.2755  20.5823  20.5847  20.5875
    20.6124  20.6140  20.8893  20.9882  21.0233  21.1417  21.8216  21.9260
    21.9322  22.1631  22.1708  22.2167  22.2182  22.5583  23.3008  23.3037
    24.6964  24.7025  27.1950  28.4435  28.7505  28.7671  30.8212  30.9386
    30.9512  32.0860  32.2665  32.6237  35.9313  36.3043  36.5754  37.4049

          k = 0.4291 0.1385 0.2757 ( 16184 PWs)   bands (ev):

   -75.8966 -75.8951 -75.8937 -75.8922 -61.9143 -61.9120 -61.9098 -61.9076
   -44.2949 -44.2946 -44.2946 -44.2944 -44.2921 -44.2919 -44.2914 -44.2910
   -44.2898 -44.2895 -44.2889 -44.2887 -44.2696 -44.2696 -44.2695 -44.2695
   -44.2658 -44.2657 -44.2657 -44.2657 -44.2610 -44.2608 -44.2608 -44.2606
   -44.2605 -44.2604 -44.2603 -44.2601 -30.1644 -30.1492 -30.0982 -30.0531
   -30.0183 -29.9909 -29.9859 -29.9821 -29.9803 -29.9716 -29.9203 -29.9051
   -27.7078 -27.6957 -27.6676 -27.6653 -27.6632 -27.6602 -27.6538 -27.6172
   -27.5913 -27.5542 -27.5152 -27.5033  16.5102  16.5520  16.8340  17.2621
    17.2890  17.3507  17.6988  17.8722  18.2803  18.3129  18.4830  18.5448
    18.5823  18.6433  18.9040  18.9649  19.0448  19.2115  19.2325  19.4210
    19.4563  19.5733  19.5932  19.6771  19.8392  19.9519  19.9895  20.0336
    20.0682  20.4200  20.5778  20.6928  20.8765  21.3430  21.5562  21.8117
    21.8838  21.9123  21.9829  22.0080  22.3300  22.8245  23.2904  24.0483
    24.7538  25.9048  25.9669  27.2253  29.3053  30.0893  30.2520  31.3126
    31.7592  32.9711  33.8686  34.2014  35.0808  35.6642  36.5433  37.4868

          k = 0.4280 0.1382-0.2757 ( 16181 PWs)   bands (ev):

   -75.8963 -75.8958 -75.8930 -75.8925 -61.9137 -61.9130 -61.9089 -61.9081
   -44.2949 -44.2947 -44.2946 -44.2944 -44.2920 -44.2918 -44.2915 -44.2912
   -44.2896 -44.2893 -44.2890 -44.2887 -44.2696 -44.2696 -44.2695 -44.2695
   -44.2658 -44.2657 -44.2657 -44.2657 -44.2610 -44.2608 -44.2608 -44.2606
   -44.2605 -44.2604 -44.2603 -44.2601 -30.1513 -30.1319 -30.1227 -30.0939
   -29.9918 -29.9858 -29.9845 -29.9782 -29.9779 -29.9456 -29.9392 -29.9166
   -27.7011 -27.6784 -27.6765 -27.6671 -27.6666 -27.6637 -27.6591 -27.6447
   -27.5615 -27.5345 -27.5298 -27.5118  16.4978  16.5179  16.9827  17.1929
    17.2755  17.3149  17.7510  17.7968  18.2716  18.3704  18.4254  18.5685
    18.6351  18.6854  18.7849  18.9343  19.1765  19.2204  19.2254  19.3971
    19.4059  19.4411  19.6706  19.7602  19.8470  19.9219  19.9711  20.0475
    20.0906  20.4156  20.5885  20.6975  20.8783  21.3437  21.5301  21.8451
    21.9070  21.9092  21.9353  22.0234  22.3336  22.8148  23.3707  23.9925
    24.6728  25.9277  25.9932  27.1785  29.2441  30.0884  30.5749  31.2534
    31.5534  33.0996  33.9408  34.0376  35.2172  35.4741  36.5644  37.3613

          k = 0.4283 0.1383-0.1379 ( 16191 PWs)   bands (ev):

   -75.8963 -75.8957 -75.8930 -75.8925 -61.9138 -61.9129 -61.9089 -61.9081
   -44.2949 -44.2947 -44.2946 -44.2944 -44.2920 -44.2918 -44.2915 -44.2912
   -44.2896 -44.2893 -44.2890 -44.2888 -44.2696 -44.2696 -44.2695 -44.2695
   -44.2658 -44.2657 -44.2657 -44.2657 -44.2610 -44.2608 -44.2608 -44.2606
   -44.2605 -44.2604 -44.2603 -44.2601 -30.1564 -30.1296 -30.1280 -30.0891
   -29.9925 -29.9874 -29.9869 -29.9795 -29.9765 -29.9449 -29.9396 -29.9163
   -27.6924 -27.6830 -27.6713 -27.6671 -27.6627 -27.6618 -27.6581 -27.6518
   -27.5604 -27.5352 -27.5293 -27.5121  16.2458  16.2930  16.5853  16.8541
    16.9168  17.0894  17.7255  17.8548  17.8997  18.2352  18.2904  18.3374
    18.6856  18.8127  18.9080  19.0341  19.0957  19.1548  19.4284  19.4912
    19.5803  19.6070  19.6290  19.6733  20.2558  20.4286  20.4950  20.5999
    20.6905  20.7798  20.9022  20.9650  21.0133  21.1552  21.8206  21.9611
    21.9796  22.0346  22.1700  22.1885  22.2975  22.5959  23.1539  23.5240
    24.3891  24.8234  27.2112  28.3019  28.3917  29.7209  30.1863  30.7681
    31.3294  32.1668  32.3002  32.5924  35.6214  36.4587  36.5685  37.4323

          k = 0.4286 0.2760 0.0000 ( 16185 PWs)   bands (ev):

   -75.8963 -75.8957 -75.8930 -75.8925 -61.9138 -61.9129 -61.9089 -61.9081
   -44.2949 -44.2947 -44.2946 -44.2944 -44.2920 -44.2918 -44.2915 -44.2912
   -44.2896 -44.2893 -44.2890 -44.2888 -44.2696 -44.2696 -44.2695 -44.2695
   -44.2658 -44.2657 -44.2657 -44.2657 -44.2610 -44.2608 -44.2608 -44.2606
   -44.2605 -44.2604 -44.2603 -44.2601 -30.1544 -30.1301 -30.1269 -30.0909
   -29.9899 -29.9890 -29.9839 -29.9794 -29.9790 -29.9450 -29.9395 -29.9164
   -27.6954 -27.6805 -27.6734 -27.6675 -27.6644 -27.6613 -27.6603 -27.6484
   -27.5608 -27.5350 -27.5295 -27.5120  16.3117  16.3220  16.7400  17.0000
    17.1524  17.1871  17.6421  17.6848  18.1947  18.2331  18.4259  18.5614
    18.5744  18.7168  19.0192  19.1682  19.2686  19.4017  19.4633  19.4805
    19.5505  19.6585  19.7206  19.7563  19.7628  19.9226  19.9239  20.0613
    20.0967  20.1411  20.6016  20.6164  21.3754  21.7438  21.8868  21.9870
    22.1201  22.1873  22.2170  22.2839  22.3004  22.4708  22.6330  23.4482
    25.9122  25.9137  27.5631  27.5977  28.5937  28.7674  29.0837  29.0944
    31.4027  32.8561  33.7687  35.3658  35.5853  35.6339  36.8580  36.9166

          k = 0.4288 0.2761 0.1379 ( 16182 PWs)   bands (ev):

   -75.8966 -75.8951 -75.8937 -75.8922 -61.9143 -61.9120 -61.9099 -61.9076
   -44.2949 -44.2947 -44.2946 -44.2944 -44.2921 -44.2919 -44.2914 -44.2910
   -44.2898 -44.2895 -44.2889 -44.2887 -44.2696 -44.2696 -44.2695 -44.2695
   -44.2658 -44.2657 -44.2657 -44.2657 -44.2610 -44.2608 -44.2608 -44.2606
   -44.2605 -44.2604 -44.2603 -44.2601 -30.1639 -30.1498 -30.0987 -30.0529
   -30.0178 -29.9911 -29.9857 -29.9824 -29.9804 -29.9715 -29.9203 -29.9052
   -27.7072 -27.6960 -27.6673 -27.6652 -27.6634 -27.6606 -27.6535 -27.6173
   -27.5913 -27.5543 -27.5153 -27.5032  16.5080  16.5481  16.8309  17.2565
    17.2859  17.3486  17.6949  17.8659  18.2794  18.3098  18.4808  18.5459
    18.5772  18.6345  18.9097  18.9615  19.0435  19.2196  19.2404  19.4213
    19.4551  19.5805  19.5905  19.6674  19.8474  19.9553  19.9890  20.0366
    20.0783  20.4271  20.5792  20.6968  20.8774  21.3421  21.5540  21.8145
    21.8884  21.9172  21.9884  22.0111  22.3313  22.8272  23.2897  24.0450
    24.7506  25.9054  25.9701  27.2254  29.3299  30.1133  30.2568  31.3298
    31.7438  32.9451  33.8378  34.1731  35.0570  35.6317  36.5140  37.5214

          k = 0.4291 0.2761 0.2757 ( 16199 PWs)   bands (ev):

   -75.8967 -75.8944 -75.8944 -75.8921 -61.9144 -61.9110 -61.9109 -61.9074
   -44.2949 -44.2946 -44.2946 -44.2944 -44.2921 -44.2920 -44.2913 -44.2909
   -44.2899 -44.2896 -44.2888 -44.2887 -44.2696 -44.2696 -44.2695 -44.2695
   -44.2658 -44.2657 -44.2657 -44.2656 -44.2610 -44.2608 -44.2608 -44.2606
   -44.2605 -44.2604 -44.2603 -44.2601 -30.1613 -30.1608 -30.0658 -30.0533
   -30.0192 -30.0038 -29.9915 -29.9817 -29.9812 -29.9809 -29.9065 -29.9065
   -27.7098 -27.7093 -27.6678 -27.6666 -27.6664 -27.6597 -27.6289 -27.6178
   -27.5914 -27.5778 -27.5045 -27.5044  16.9918  16.9929  16.9938  17.7288
    17.7467  17.7471  17.8854  18.0961  18.2486  18.3317  18.5409  18.5757
    18.6034  18.6160  18.6164  18.8078  18.8536  18.8541  18.9478  19.1093
    19.1097  19.1670  19.1719  19.2996  20.1077  20.1159  20.2547  20.2570
    20.2781  20.5106  20.5337  20.6364  20.6493  21.0849  21.1000  21.1004
    21.2618  21.4550  21.4964  21.4981  23.0323  23.7623  23.7653  24.0479
    24.7884  25.1228  25.1257  26.1554  31.6407  31.6673  32.5765  32.8740
    33.2728  33.2945  33.4207  34.1090  34.6122  35.2555  35.4593  35.4867

          k = 0.4280 0.2759-0.2757 ( 16201 PWs)   bands (ev):

   -75.8966 -75.8951 -75.8937 -75.8922 -61.9142 -61.9120 -61.9098 -61.9076
   -44.2949 -44.2946 -44.2946 -44.2944 -44.2921 -44.2919 -44.2914 -44.2910
   -44.2898 -44.2895 -44.2889 -44.2887 -44.2696 -44.2696 -44.2695 -44.2695
   -44.2658 -44.2657 -44.2657 -44.2657 -44.2610 -44.2608 -44.2608 -44.2606
   -44.2605 -44.2604 -44.2603 -44.2601 -30.1618 -30.1465 -30.0992 -30.0545
   -30.0180 -29.9920 -29.9828 -29.9823 -29.9783 -29.9714 -29.9205 -29.9052
   -27.7116 -27.6994 -27.6678 -27.6671 -27.6661 -27.6593 -27.6523 -27.6161
   -27.5917 -27.5544 -27.5152 -27.5033  16.8754  16.9398  17.3953  17.4685
    17.6032  17.6857  18.0384  18.1780  18.3520  18.3701  18.5075  18.5186
    18.5623  18.6173  18.7256  18.7403  18.8741  18.8819  18.8862  18.8942
    19.0238  19.2729  19.3094  19.3311  20.0753  20.1734  20.1869  20.2834
    20.2897  20.5263  20.5303  20.6303  20.6366  21.0079  21.0943  21.1672
    21.3341  21.4331  21.4706  21.4885  23.0650  23.4910  24.0972  24.1787
    24.5328  24.8355  25.5303  26.0432  31.3563  32.3148  32.6711  32.7186
    32.7307  33.5394  33.7837  33.9611  34.1390  35.2717  35.4135  35.6500

          k = 0.4283 0.2759-0.1379 ( 16187 PWs)   bands (ev):

   -75.8963 -75.8958 -75.8930 -75.8925 -61.9137 -61.9130 -61.9089 -61.9081
   -44.2949 -44.2947 -44.2946 -44.2944 -44.2920 -44.2918 -44.2915 -44.2912
   -44.2896 -44.2893 -44.2890 -44.2887 -44.2696 -44.2696 -44.2695 -44.2695
   -44.2658 -44.2657 -44.2657 -44.2657 -44.2610 -44.2608 -44.2608 -44.2606
   -44.2605 -44.2604 -44.2603 -44.2601 -30.1513 -30.1320 -30.1227 -30.0941
   -29.9918 -29.9858 -29.9852 -29.9781 -29.9772 -29.9456 -29.9392 -29.9166
   -27.7009 -27.6790 -27.6766 -27.6665 -27.6653 -27.6639 -27.6589 -27.6459
   -27.5615 -27.5345 -27.5298 -27.5119  16.4979  16.5080  16.9820  17.1901
    17.2754  17.3036  17.7499  17.7961  18.2709  18.3677  18.4213  18.5538
    18.6382  18.6872  18.7942  18.9421  19.1634  19.2160  19.2305  19.3965
    19.4068  19.4338  19.6842  19.7600  19.8475  19.9233  19.9905  20.0665
    20.0884  20.4077  20.5943  20.6907  20.8697  21.3574  21.5275  21.8446
    21.9069  21.9170  21.9356  22.0295  22.3314  22.7978  23.3727  24.0195
    24.7061  25.9294  25.9507  27.1796  29.2494  30.0656  30.6159  31.3222
    31.5510  33.0386  33.8710  34.0586  35.1425  35.4847  36.5145  37.4046

          k = 0.4286-0.2745 0.0000 ( 16186 PWs)   bands (ev):

   -75.8963 -75.8958 -75.8930 -75.8925 -61.9138 -61.9130 -61.9089 -61.9081
   -44.2949 -44.2947 -44.2946 -44.2944 -44.2920 -44.2918 -44.2915 -44.2912
   -44.2896 -44.2893 -44.2890 -44.2887 -44.2696 -44.2696 -44.2695 -44.2695
   -44.2658 -44.2657 -44.2657 -44.2657 -44.2610 -44.2608 -44.2608 -44.2606
   -44.2605 -44.2604 -44.2603 -44.2601 -30.1548 -30.1296 -30.1264 -30.0914
   -29.9900 -29.9888 -29.9835 -29.9828 -29.9759 -29.9452 -29.9395 -29.9164
   -27.6959 -27.6802 -27.6747 -27.6663 -27.6630 -27.6613 -27.6602 -27.6497
   -27.5610 -27.5349 -27.5295 -27.5120  16.3157  16.3172  16.7400  16.9998
    17.1592  17.1873  17.6309  17.6822  18.1919  18.2359  18.4272  18.5705
    18.5711  18.7144  19.0255  19.1636  19.2814  19.4244  19.4435  19.4827
    19.5501  19.6465  19.7180  19.7469  19.7656  19.9180  19.9271  20.0565
    20.0940  20.1485  20.6060  20.6194  21.3831  21.7467  21.8838  21.9878
    22.1219  22.1838  22.2194  22.2814  22.3020  22.4636  22.6341  23.4424
    25.8909  25.9295  27.5873  27.5976  28.6304  28.7391  29.0438  29.1012
    31.3768  32.8945  33.8010  35.3261  35.5879  35.5975  36.9051  36.9112

          k = 0.4288-0.2745 0.1379 ( 16179 PWs)   bands (ev):

   -75.8963 -75.8958 -75.8930 -75.8925 -61.9138 -61.9130 -61.9089 -61.9081
   -44.2949 -44.2947 -44.2946 -44.2944 -44.2920 -44.2918 -44.2915 -44.2912
   -44.2896 -44.2893 -44.2890 -44.2888 -44.2696 -44.2696 -44.2695 -44.2695
   -44.2658 -44.2657 -44.2657 -44.2657 -44.2610 -44.2608 -44.2608 -44.2606
   -44.2605 -44.2604 -44.2603 -44.2601 -30.1509 -30.1325 -30.1232 -30.0936
   -29.9920 -29.9856 -29.9836 -29.9786 -29.9785 -29.9454 -29.9392 -29.9166
   -27.7003 -27.6787 -27.6771 -27.6669 -27.6659 -27.6641 -27.6587 -27.6452
   -27.5614 -27.5346 -27.5299 -27.5118  16.4955  16.5143  16.9795  17.1874
    17.2731  17.3119  17.7481  17.7910  18.2686  18.3653  18.4269  18.5628
    18.6358  18.6764  18.7890  18.9305  19.1822  19.2246  19.2274  19.3995
    19.4060  19.4432  19.6643  19.7608  19.8556  19.9265  19.9702  20.0512
    20.0996  20.4225  20.5889  20.7017  20.8776  21.3435  21.5287  21.8469
    21.9133  21.9142  21.9397  22.0272  22.3352  22.8166  23.3684  23.9912
    24.6719  25.9256  25.9930  27.1826  29.2665  30.1102  30.5924  31.2715
    31.5304  33.0696  33.9062  34.0142  35.1924  35.4457  36.5305  37.3820

          k = 0.4291-0.2744 0.2757 ( 16200 PWs)   bands (ev):

   -75.8966 -75.8951 -75.8937 -75.8922 -61.9143 -61.9120 -61.9099 -61.9076
   -44.2949 -44.2947 -44.2946 -44.2944 -44.2921 -44.2919 -44.2914 -44.2910
   -44.2898 -44.2895 -44.2889 -44.2887 -44.2696 -44.2696 -44.2695 -44.2695
   -44.2658 -44.2657 -44.2657 -44.2657 -44.2610 -44.2608 -44.2608 -44.2606
   -44.2605 -44.2604 -44.2603 -44.2601 -30.1613 -30.1470 -30.0996 -30.0541
   -30.0176 -29.9924 -29.9828 -29.9822 -29.9785 -29.9712 -29.9205 -29.9052
   -27.7110 -27.7001 -27.6675 -27.6670 -27.6663 -27.6603 -27.6515 -27.6160
   -27.5916 -27.5545 -27.5152 -27.5032  16.8769  16.9395  17.3937  17.4684
    17.6033  17.6852  18.0397  18.1785  18.3514  18.3697  18.5076  18.5182
    18.5619  18.6169  18.7262  18.7399  18.8708  18.8816  18.8853  18.8975
    19.0245  19.2744  19.3100  19.3308  20.0739  20.1750  20.1872  20.2838
    20.2879  20.5252  20.5288  20.6314  20.6378  21.0084  21.0943  21.1670
    21.3348  21.4340  21.4702  21.4880  23.0663  23.4911  24.0972  24.1766
    24.5327  24.8325  25.5303  26.0468  31.3586  32.3182  32.6529  32.7285
    32.7388  33.5402  33.7797  33.9634  34.1324  35.2729  35.4136  35.6438

          k = 0.4280-0.2747-0.2757 ( 16204 PWs)   bands (ev):

   -75.8967 -75.8944 -75.8944 -75.8921 -61.9144 -61.9110 -61.9109 -61.9074
   -44.2949 -44.2946 -44.2946 -44.2944 -44.2921 -44.2920 -44.2913 -44.2909
   -44.2899 -44.2896 -44.2888 -44.2887 -44.2696 -44.2696 -44.2695 -44.2695
   -44.2658 -44.2657 -44.2657 -44.2656 -44.2610 -44.2608 -44.2608 -44.2606
   -44.2605 -44.2604 -44.2603 -44.2601 -30.1612 -30.1607 -30.0658 -30.0533
   -30.0197 -30.0037 -29.9911 -29.9817 -29.9812 -29.9809 -29.9066 -29.9065
   -27.7100 -27.7094 -27.6674 -27.6666 -27.6662 -27.6598 -27.6287 -27.6178
   -27.5916 -27.5778 -27.5045 -27.5044  16.9801  16.9936  16.9954  17.7303
    17.7508  17.7510  17.8728  18.1134  18.2444  18.3235  18.5409  18.5796
    18.6110  18.6226  18.6238  18.8193  18.8569  18.8578  18.9493  19.1111
    19.1121  19.1558  19.1604  19.2772  20.1069  20.1119  20.2498  20.2504
    20.3039  20.5381  20.5474  20.6174  20.6298  21.0759  21.1000  21.1014
    21.2529  21.4614  21.4931  21.4960  23.0138  23.7623  23.7633  24.0780
    24.8275  25.1235  25.1269  26.1077  31.6059  31.6303  32.5705  32.8509
    33.3115  33.3372  33.4353  34.1304  34.6382  35.2833  35.4994  35.5290

          k = 0.4283-0.2746-0.1379 ( 16184 PWs)   bands (ev):

   -75.8966 -75.8951 -75.8937 -75.8922 -61.9143 -61.9120 -61.9098 -61.9076
   -44.2949 -44.2946 -44.2946 -44.2944 -44.2921 -44.2919 -44.2914 -44.2910
   -44.2898 -44.2895 -44.2889 -44.2887 -44.2696 -44.2696 -44.2695 -44.2695
   -44.2658 -44.2657 -44.2657 -44.2657 -44.2610 -44.2608 -44.2608 -44.2606
   -44.2605 -44.2604 -44.2603 -44.2601 -30.1644 -30.1492 -30.0983 -30.0536
   -30.0184 -29.9907 -29.9859 -29.9821 -29.9803 -29.9715 -29.9204 -29.9052
   -27.7078 -27.6960 -27.6667 -27.6650 -27.6632 -27.6607 -27.6531 -27.6179
   -27.5914 -27.5542 -27.5152 -27.5033  16.5113  16.5375  16.8337  17.2604
    17.2905  17.3510  17.6762  17.8653  18.2753  18.3174  18.4784  18.5474
    18.5808  18.6424  18.9166  18.9742  19.0581  19.2157  19.2441  19.3977
    19.4447  19.5863  19.5949  19.6765  19.8338  19.9394  20.0067  20.0373
    20.0679  20.4168  20.6016  20.6837  20.8910  21.3425  21.5449  21.8110
    21.8837  21.9215  21.9825  22.0067  22.3230  22.8222  23.3125  24.0493
    24.7550  25.9488  25.9665  27.1713  29.2890  30.0997  30.2788  31.3462
    31.7341  32.9863  33.8498  34.1809  35.0602  35.6007  36.5622  37.6699

          k = 0.4286-0.1369 0.0000 ( 16169 PWs)   bands (ev):

   -75.8966 -75.8951 -75.8936 -75.8922 -61.9143 -61.9120 -61.9098 -61.9076
   -44.2949 -44.2946 -44.2946 -44.2944 -44.2921 -44.2919 -44.2914 -44.2910
   -44.2898 -44.2895 -44.2889 -44.2887 -44.2696 -44.2696 -44.2695 -44.2695
   -44.2658 -44.2657 -44.2657 -44.2657 -44.2610 -44.2608 -44.2608 -44.2606
   -44.2605 -44.2604 -44.2603 -44.2601 -30.1686 -30.1535 -30.0968 -30.0516
   -30.0187 -29.9914 -29.9890 -29.9880 -29.9769 -29.9717 -29.9201 -29.9050
   -27.7018 -27.6897 -27.6665 -27.6623 -27.6612 -27.6587 -27.6555 -27.6206
   -27.5907 -27.5538 -27.5153 -27.5033  16.0945  16.1887  16.3637  16.7486
    16.7628  16.9178  17.7079  17.7227  17.8115  18.1477  18.1733  18.3346
    18.8710  18.8973  19.0397  19.0763  19.1520  19.2366  19.3096  19.3690
    19.5425  19.5438  19.7833  19.8899  20.0787  20.6683  20.7872  20.8979
    20.9642  20.9683  20.9834  21.0571  21.4457  21.5175  21.6937  21.9333
    22.1294  22.2079  22.2326  22.3827  22.4116  22.4129  22.5466  23.7890
    24.2387  24.3118  28.0076  28.4720  28.9024  28.9317  30.0790  30.1173
    30.1282  30.8911  33.0568  33.0794  34.9790  35.0157  36.5954  38.0549

          k = 0.4288-0.1368 0.1379 ( 16189 PWs)   bands (ev):

   -75.8963 -75.8958 -75.8930 -75.8925 -61.9138 -61.9130 -61.9088 -61.9081
   -44.2949 -44.2947 -44.2946 -44.2944 -44.2920 -44.2918 -44.2915 -44.2912
   -44.2896 -44.2893 -44.2890 -44.2887 -44.2696 -44.2696 -44.2695 -44.2695
   -44.2658 -44.2657 -44.2657 -44.2657 -44.2610 -44.2608 -44.2608 -44.2606
   -44.2605 -44.2604 -44.2603 -44.2601 -30.1569 -30.1288 -30.1278 -30.0895
   -29.9927 -29.9872 -29.9866 -29.9812 -29.9751 -29.9449 -29.9396 -29.9163
   -27.6930 -27.6823 -27.6700 -27.6676 -27.6632 -27.6628 -27.6578 -27.6515
   -27.5606 -27.5351 -27.5293 -27.5121  16.2465  16.2923  16.5856  16.8541
    16.9166  17.0891  17.7262  17.8551  17.8996  18.2356  18.2911  18.3374
    18.6845  18.8121  18.9067  19.0328  19.0953  19.1555  19.4291  19.4905
    19.5794  19.6084  19.6312  19.6739  20.2551  20.4278  20.4952  20.5991
    20.6916  20.7789  20.9012  20.9652  21.0138  21.1558  21.8204  21.9581
    21.9824  22.0353  22.1703  22.1884  22.2983  22.5951  23.1538  23.5237
    24.3889  24.8240  27.2081  28.3043  28.3954  29.7183  30.1889  30.7686
    31.3261  32.1671  32.3032  32.5889  35.6228  36.4558  36.5692  37.4291

          k = 0.4291-0.1368 0.2757 ( 16189 PWs)   bands (ev):

   -75.8963 -75.8958 -75.8930 -75.8925 -61.9138 -61.9130 -61.9089 -61.9081
   -44.2949 -44.2947 -44.2946 -44.2944 -44.2920 -44.2918 -44.2915 -44.2912
   -44.2896 -44.2893 -44.2890 -44.2888 -44.2696 -44.2696 -44.2695 -44.2695
   -44.2658 -44.2657 -44.2657 -44.2657 -44.2610 -44.2608 -44.2608 -44.2606
   -44.2605 -44.2604 -44.2603 -44.2601 -30.1508 -30.1324 -30.1231 -30.0936
   -29.9920 -29.9856 -29.9838 -29.9784 -29.9782 -29.9456 -29.9392 -29.9166
   -27.7004 -27.6805 -27.6776 -27.6655 -27.6652 -27.6642 -27.6582 -27.6456
   -27.5614 -27.5346 -27.5299 -27.5118  16.5022  16.5105  16.9852  17.1944
    17.2777  17.3059  17.7546  17.8022  18.2734  18.3734  18.4196  18.5587
    18.6379  18.6954  18.7893  18.9442  19.1582  19.2091  19.2292  19.3938
    19.4078  19.4347  19.6888  19.7595  19.8405  19.9204  19.9888  20.0630
    20.0806  20.4021  20.5911  20.6882  20.8684  21.3575  21.5300  21.8441
    21.9002  21.9128  21.9305  22.0265  22.3309  22.7964  23.3720  24.0205
    24.7066  25.9258  25.9511  27.1827  29.2325  30.0453  30.5921  31.3025
    31.5792  33.0624  33.9018  34.0835  35.1656  35.5178  36.5421  37.3850

          k = 0.4280-0.1370-0.2757 ( 16182 PWs)   bands (ev):

   -75.8966 -75.8951 -75.8937 -75.8922 -61.9143 -61.9120 -61.9099 -61.9076
   -44.2949 -44.2947 -44.2946 -44.2944 -44.2921 -44.2919 -44.2914 -44.2910
   -44.2898 -44.2895 -44.2889 -44.2887 -44.2696 -44.2696 -44.2695 -44.2695
   -44.2658 -44.2657 -44.2657 -44.2657 -44.2610 -44.2608 -44.2608 -44.2606
   -44.2605 -44.2604 -44.2603 -44.2601 -30.1638 -30.1496 -30.0987 -30.0530
   -30.0179 -29.9914 -29.9857 -29.9822 -29.9804 -29.9711 -29.9204 -29.9052
   -27.7073 -27.6969 -27.6668 -27.6644 -27.6636 -27.6621 -27.6520 -27.6176
   -27.5912 -27.5544 -27.5153 -27.5032  16.5155  16.5408  16.8352  17.2658
    17.2938  17.3538  17.6795  17.8712  18.2763  18.3202  18.4808  18.5460
    18.5876  18.6497  18.9106  18.9767  19.0587  19.2107  19.2376  19.3981
    19.4456  19.5785  19.5986  19.6823  19.8265  19.9377  20.0053  20.0311
    20.0597  20.4113  20.5995  20.6810  20.8911  21.3417  21.5473  21.8092
    21.8786  21.9173  21.9761  22.0042  22.3221  22.8220  23.3128  24.0490
    24.7529  25.9481  25.9693  27.1711  29.2668  30.0815  30.2722  31.3222
    31.7446  33.0172  33.8808  34.2081  35.0887  35.6297  36.5939  37.5096

          k = 0.4283-0.1370-0.1379 ( 16190 PWs)   bands (ev):

   -75.8968 -75.8944 -75.8944 -75.8921 -61.9144 -61.9109 -61.9109 -61.9075
   -44.2949 -44.2946 -44.2946 -44.2944 -44.2921 -44.2920 -44.2913 -44.2909
   -44.2899 -44.2896 -44.2888 -44.2887 -44.2696 -44.2696 -44.2695 -44.2695
   -44.2658 -44.2657 -44.2657 -44.2657 -44.2610 -44.2608 -44.2608 -44.2606
   -44.2605 -44.2604 -44.2603 -44.2601 -30.1657 -30.1653 -30.0634 -30.0550
   -30.0173 -30.0050 -29.9894 -29.9874 -29.9872 -29.9783 -29.9064 -29.9064
   -27.7037 -27.7030 -27.6666 -27.6618 -27.6615 -27.6611 -27.6318 -27.6157
   -27.5952 -27.5761 -27.5044 -27.5044  16.2680  16.3915  16.3932  16.9122
    16.9129  17.1114  17.6971  17.8781  17.9186  18.1544  18.2925  18.3820
    18.7711  18.8371  18.8374  19.0818  19.1286  19.1364  19.4954  19.4983
    19.5029  19.5646  19.6054  19.6099  20.2869  20.5772  20.5825  20.5977
    20.6170  20.6212  20.9057  20.9815  21.0149  21.1345  21.8240  21.9253
    21.9304  22.1586  22.1743  22.2064  22.2085  22.5706  23.3040  23.3045
    24.6967  24.6984  27.2417  28.3873  28.7314  28.7446  30.8078  30.9633
    30.9807  32.0877  32.2628  32.6367  35.8924  36.3375  36.6270  37.4292

     the Fermi energy is    22.3943 ev

!    total energy              =   -5144.24060698 Ry
     estimated scf accuracy    <          6.6E-09 Ry
     smearing contrib. (-TS)   =       0.00066032 Ry
     internal energy E=F+TS    =   -5144.24126730 Ry

     The total energy is F=E-TS. E is the sum of the following terms:
     one-electron contribution =   -3356.72466430 Ry
     hartree contribution      =    1803.49014836 Ry
     xc contribution           =    -401.18877380 Ry
     ewald contribution        =   -3189.81797756 Ry

     convergence has been achieved in  14 iterations

     Forces acting on atoms (cartesian axes, Ry/au):

     atom    1 type  1   force =    -0.00021799   -0.00021493    0.00014988
     atom    2 type  1   force =     0.00008496    0.00033454    0.00036411
     atom    3 type  1   force =     0.00014861   -0.00024112   -0.00000864
     atom    4 type  1   force =    -0.00006772   -0.00020374   -0.00019507
     atom    5 type  2   force =     0.00003789    0.00001997   -0.00014166
     atom    6 type  2   force =     0.00011046    0.00005468   -0.00005513
     atom    7 type  2   force =    -0.00011572    0.00025429   -0.00016661
     atom    8 type  2   force =     0.00001952   -0.00000369    0.00005311

     Total force =     0.000826     Total SCF correction =     0.000509
     SCF correction compared to forces is large: reduce conv_thr to get better values


     Computing stress (Cartesian axis) and pressure

          total   stress  (Ry/bohr**3)                   (kbar)     P=        3.44
   0.00010940   0.00000997   0.00001118           16.09        1.47        1.65
   0.00000997  -0.00002597   0.00000564            1.47       -3.82        0.83
   0.00001118   0.00000564  -0.00001336            1.65        0.83       -1.96


     Writing all to output data dir /home/tenant3/nexus-mat/dft/runs/dft-paper-worker-06/jobs/Pt-Pd-01_Pd4Pt4/tmp/Pt-Pd-01_Pd4Pt4.save/ :
     XML data file, charge density, pseudopotentials, collected wavefunctions

     init_run     :    553.78s CPU    559.80s WALL (       1 calls)
     electrons    :  19099.46s CPU  19195.02s WALL (       1 calls)
     forces       :    254.20s CPU    254.79s WALL (       1 calls)
     stress       :    836.21s CPU    839.03s WALL (       1 calls)

     Called by init_run:
     wfcinit      :    548.39s CPU    551.23s WALL (       1 calls)
     potinit      :      0.58s CPU      1.25s WALL (       1 calls)
     hinit0       :      0.75s CPU      1.53s WALL (       1 calls)

     Called by electrons:
     c_bands      :  17309.10s CPU  17380.92s WALL (      15 calls)
     sum_band     :   1731.19s CPU   1744.48s WALL (      15 calls)
     v_of_rho     :      4.80s CPU      5.65s WALL (      15 calls)
     newd         :     57.41s CPU     68.98s WALL (      15 calls)
     mix_rho      :      0.76s CPU      0.76s WALL (      15 calls)

     Called by c_bands:
     init_us_2    :     38.45s CPU     38.67s WALL (    2904 calls)
     cegterg      :  17195.79s CPU  17267.32s WALL (    1320 calls)

     Called by *egterg:
     cdiaghg      :     60.58s CPU     60.60s WALL (    3476 calls)
     h_psi        :   6295.99s CPU   6316.24s WALL (    3652 calls)
     s_psi        :   2275.68s CPU   2276.06s WALL (    3652 calls)
     g_psi        :     10.20s CPU     10.21s WALL (    2244 calls)

     Called by h_psi:
     h_psi:calbec :   2758.25s CPU   2758.73s WALL (    3652 calls)
     vloc_psi     :   1251.09s CPU   1252.58s WALL (    3652 calls)
                                        0.00s GPU  (    3652 calls)
     add_vuspsi   :   2272.56s CPU   2272.94s WALL (    3652 calls)

     General routines
     calbec       :   5103.54s CPU   5104.33s WALL (    6468 calls)
     fft          :      3.11s CPU      3.42s WALL (     219 calls)
     ffts         :      0.09s CPU      0.09s WALL (      30 calls)
     fftw         :   1281.35s CPU   1282.79s WALL (  834092 calls)
     interpolate  :      0.34s CPU      0.38s WALL (      15 calls)


     PWSCF        :      5h45m CPU      5h47m WALL


   This run was terminated on:   1:24:11  21Jul2026            

=------------------------------------------------------------------------------=
   JOB DONE.
=------------------------------------------------------------------------------=
