
     Program PWSCF v.7.5 starts on 21Jul2026 at  1:26:34 

     This program is part of the open-source Quantum ESPRESSO suite
     for quantum simulation of materials; please cite
         "P. Giannozzi et al., J. Phys.:Condens. Matter 21 395502 (2009);
         "P. Giannozzi et al., J. Phys.:Condens. Matter 29 465901 (2017);
         "P. Giannozzi et al., J. Chem. Phys. 152 154105 (2020);
          URL http://www.quantum-espresso.org", 
     in publications or presentations arising from this work. More details at
     http://www.quantum-espresso.org/quote

     Serial multi-threaded version, running on    1 processor cores
     5888 MiB available memory on the printing compute node when the environment starts

     Reading input from /home/tenant3/nexus-mat/dft/runs/dft-paper-worker-04/jobs/Pt-Pd-Rh-12_Pd2Pt2Rh2/input.in

     Current dimensions of program PWSCF are:
     Max number of different atomic species (ntypx) = 10
     Max number of k-points (npk) =  40000
     Max angular momentum in pseudopotentials (lmaxx) =  4
     file Pt.pbe-spfn-rrkjus_psl.1.0.0.UPF: wavefunction(s)  5P renormalized


     G-vector sticks info
     --------------------
     sticks:   dense  smooth     PW     G-vecs:    dense   smooth      PW
     Sum        1901     949    277               268721    95043   14719

     Using Slab Decomposition



     bravais-lattice index     =            0
     lattice parameter (alat)  =       5.2280  a.u.
     unit-cell volume          =     609.7985 (a.u.)^3
     number of atoms/cell      =            6
     number of atomic types    =            3
     number of electrons       =       134.00
     number of Kohn-Sham states=           80
     kinetic-energy cutoff     =     110.0000  Ry
     charge density cutoff     =     880.0000  Ry
     scf convergence threshold =      1.0E-08
     mixing beta               =       0.3000
     number of iterations used =            8  plain     mixing
     Exchange-correlation= PBE
                           (   1   4   3   4   0   0   0)

     celldm(1)=   5.227979  celldm(2)=   0.000000  celldm(3)=   0.000000
     celldm(4)=   0.000000  celldm(5)=   0.000000  celldm(6)=   0.000000

     crystal axes: (cart. coord. in units of alat)
               a(1) = (   1.000000   0.000000   0.000368 )  
               a(2) = (   0.000655   0.999820   0.000182 )  
               a(3) = (   0.000000   0.000000   4.268380 )  

     reciprocal axes: (cart. coord. in units 2 pi/alat)
               b(1) = (  1.000000 -0.000655  0.000000 )  
               b(2) = (  0.000000  1.000180  0.000000 )  
               b(3) = ( -0.000086 -0.000042  0.234281 )  


     PseudoPot. # 1 for Pd read from file:
     /home/tenant3/nexus-mat/dft/pseudo/SSSP_1.3.0_PBE_precision/Pd_ONCV_PBE-1.0.oncvpsp.upf
     MD5 check sum: eb77f42b51d86fb18e25f68156a31cf1
     Pseudo is Norm-conserving, Zval = 18.0
     Generated using ONCVPSP code by D. R. Hamann
     Using radial grid of 1410 points,  6 beta functions with: 
                l(1) =   0
                l(2) =   0
                l(3) =   1
                l(4) =   1
                l(5) =   2
                l(6) =   2

     PseudoPot. # 2 for Pt read from file:
     /home/tenant3/nexus-mat/dft/pseudo/SSSP_1.3.0_PBE_precision/Pt.pbe-spfn-rrkjus_psl.1.0.0.UPF
     MD5 check sum: ed006ba81d2b6b3b17616bb61ae12f04
     Pseudo is Ultrasoft + core correction, Zval = 32.0
     Generated using "atomic" code by A. Dal Corso  v.5.1
     Using radial grid of 1277 points,  8 beta functions with: 
                l(1) =   0
                l(2) =   0
                l(3) =   1
                l(4) =   1
                l(5) =   2
                l(6) =   2
                l(7) =   3
                l(8) =   3
     Q(r) pseudized with 0 coefficients 


     PseudoPot. # 3 for Rh read from file:
     /home/tenant3/nexus-mat/dft/pseudo/SSSP_1.3.0_PBE_precision/Rh_ONCV_PBE-1.0.oncvpsp.upf
     MD5 check sum: ba07c69523b14cacd10683cd4c4284c1
     Pseudo is Norm-conserving, Zval = 17.0
     Generated using ONCVPSP code by D. R. Hamann
     Using radial grid of 1442 points,  6 beta functions with: 
                l(1) =   0
                l(2) =   0
                l(3) =   1
                l(4) =   1
                l(5) =   2
                l(6) =   2

     atomic species   valence    mass     pseudopotential
     Pd               18.00   106.42000     Pd( 1.00)
     Pt               32.00   195.08400     Pt( 1.00)
     Rh               17.00   102.90549     Rh( 1.00)

     No symmetry found



   Cartesian axes

     site n.     atom                  positions (alat units)
         1        Pd     tau(   1) = (   0.9608308   0.2528674   3.5464518  )
         2        Pd     tau(   2) = (   0.4608465   0.7529376   1.3628375  )
         3        Pt     tau(   3) = (   0.9607234   0.2530767   2.0890541  )
         4        Pt     tau(   4) = (   0.4611865   0.7529092   2.8198879  )
         5        Rh     tau(   5) = (   0.4609574   0.7528149   4.2599391  )
         6        Rh     tau(   6) = (   0.9604754   0.2528769   0.6493902  )

     number of k points=   150  Marzari-Vanderbilt smearing, width (Ry)=  0.0200

     Number of k-points >= 100: set verbosity='high' to print them.

     Dense  grid:   268721 G-vectors     FFT dimensions: (  50,  50, 216)

     Smooth grid:    95043 G-vectors     FFT dimensions: (  36,  36, 150)

     Estimated max dynamical RAM per process >       4.67 GB

     Initial potential from superposition of free atoms

     starting charge     133.9981, renormalised to     134.0000
     Starting wfcs are   74 randomized atomic wfcs +    6 random wfcs

     total cpu time spent up to now is      988.6 secs

     Self-consistent Calculation

     iteration #  1     ecut=   110.00 Ry     beta= 0.30
     Davidson diagonalization with overlap
     ethr =  1.00E-02,  avg # of iterations =  3.0

     total cpu time spent up to now is     4677.2 secs

     total energy              =   -2997.49129660 Ry
     estimated scf accuracy    <      17.37719683 Ry

     iteration #  2     ecut=   110.00 Ry     beta= 0.30
     Davidson diagonalization with overlap
     ethr =  1.00E-02,  avg # of iterations =  5.7

     total cpu time spent up to now is    10508.1 secs

     total energy              =   -2989.75256791 Ry
     estimated scf accuracy    <     622.82896503 Ry

     iteration #  3     ecut=   110.00 Ry     beta= 0.30
     Davidson diagonalization with overlap
     ethr =  1.00E-02,  avg # of iterations =  5.9

     total cpu time spent up to now is    15392.2 secs

     total energy              =   -3005.95034365 Ry
     estimated scf accuracy    <      12.78797920 Ry

     iteration #  4     ecut=   110.00 Ry     beta= 0.30
     Davidson diagonalization with overlap
     ethr =  9.54E-03,  avg # of iterations =  1.1

     total cpu time spent up to now is    18028.8 secs

     total energy              =   -3005.87168524 Ry
     estimated scf accuracy    <       3.93212714 Ry

     iteration #  5     ecut=   110.00 Ry     beta= 0.30
     Davidson diagonalization with overlap
     ethr =  2.93E-03,  avg # of iterations =  2.0

     total cpu time spent up to now is    20606.0 secs

     total energy              =   -3005.95630866 Ry
     estimated scf accuracy    <       0.05806929 Ry

     iteration #  6     ecut=   110.00 Ry     beta= 0.30
     Davidson diagonalization with overlap
     ethr =  4.33E-05,  avg # of iterations =  6.8

     total cpu time spent up to now is    23591.5 secs

     total energy              =   -3005.96517607 Ry
     estimated scf accuracy    <       0.41018794 Ry

     iteration #  7     ecut=   110.00 Ry     beta= 0.30
     Davidson diagonalization with overlap
     ethr =  4.33E-05,  avg # of iterations =  1.0

     total cpu time spent up to now is    26047.9 secs

     total energy              =   -3005.93429423 Ry
     estimated scf accuracy    <       0.66675983 Ry

     iteration #  8     ecut=   110.00 Ry     beta= 0.30
     Davidson diagonalization with overlap
     ethr =  4.33E-05,  avg # of iterations =  2.2

     total cpu time spent up to now is    28938.7 secs

     total energy              =   -3005.97157516 Ry
     estimated scf accuracy    <       0.44629277 Ry

     iteration #  9     ecut=   110.00 Ry     beta= 0.30
     Davidson diagonalization with overlap
     ethr =  4.33E-05,  avg # of iterations =  1.1

     total cpu time spent up to now is    31402.1 secs

     total energy              =   -3005.95661556 Ry
     estimated scf accuracy    <       0.64646058 Ry

     iteration # 10     ecut=   110.00 Ry     beta= 0.30
     Davidson diagonalization with overlap
     ethr =  4.33E-05,  avg # of iterations =  1.0

     total cpu time spent up to now is    33843.9 secs

     total energy              =   -3005.95702745 Ry
     estimated scf accuracy    <       0.08932956 Ry

     iteration # 11     ecut=   110.00 Ry     beta= 0.30
     Davidson diagonalization with overlap
     ethr =  4.33E-05,  avg # of iterations =  1.1

     total cpu time spent up to now is    36302.2 secs

     total energy              =   -3005.95967056 Ry
     estimated scf accuracy    <       0.02177935 Ry

     iteration # 12     ecut=   110.00 Ry     beta= 0.30
     Davidson diagonalization with overlap
     ethr =  1.63E-05,  avg # of iterations =  1.1

     total cpu time spent up to now is    38739.0 secs

     total energy              =   -3005.95966516 Ry
     estimated scf accuracy    <       0.00382138 Ry

     iteration # 13     ecut=   110.00 Ry     beta= 0.30
     Davidson diagonalization with overlap
     ethr =  2.85E-06,  avg # of iterations =  1.0

     total cpu time spent up to now is    41175.0 secs

     total energy              =   -3005.95972201 Ry
     estimated scf accuracy    <       0.00002224 Ry

     iteration # 14     ecut=   110.00 Ry     beta= 0.30
     Davidson diagonalization with overlap
     ethr =  1.66E-08,  avg # of iterations =  1.1

     total cpu time spent up to now is    43668.1 secs

     total energy              =   -3005.95971859 Ry
     estimated scf accuracy    <       0.00037466 Ry

     iteration # 15     ecut=   110.00 Ry     beta= 0.30
     Davidson diagonalization with overlap
     ethr =  1.66E-08,  avg # of iterations =  1.0

     total cpu time spent up to now is    46107.3 secs

     total energy              =   -3005.95972530 Ry
     estimated scf accuracy    <       0.00000255 Ry

     iteration # 16     ecut=   110.00 Ry     beta= 0.30
     Davidson diagonalization with overlap
     ethr =  1.91E-09,  avg # of iterations =  1.0

     total cpu time spent up to now is    48541.1 secs

     total energy              =   -3005.95972521 Ry
     estimated scf accuracy    <       0.00000566 Ry

     iteration # 17     ecut=   110.00 Ry     beta= 0.30
     Davidson diagonalization with overlap
     ethr =  1.91E-09,  avg # of iterations =  1.0

     total cpu time spent up to now is    50981.7 secs

     total energy              =   -3005.95972499 Ry
     estimated scf accuracy    <       0.00001485 Ry

     iteration # 18     ecut=   110.00 Ry     beta= 0.30
     Davidson diagonalization with overlap
     ethr =  1.91E-09,  avg # of iterations =  1.0

     total cpu time spent up to now is    53419.4 secs

     total energy              =   -3005.95972525 Ry
     estimated scf accuracy    <       0.00000080 Ry

     iteration # 19     ecut=   110.00 Ry     beta= 0.30
     Davidson diagonalization with overlap
     ethr =  5.95E-10,  avg # of iterations =  1.0

     total cpu time spent up to now is    55850.1 secs

     End of self-consistent calculation

     Number of k-points >= 100: set verbosity='high' to print the bands.

     the Fermi energy is    22.2764 ev

!    total energy              =   -3005.95972525 Ry
     estimated scf accuracy    <          9.2E-09 Ry
     smearing contrib. (-TS)   =      -0.00345637 Ry
     internal energy E=F+TS    =   -3005.95626888 Ry

     The total energy is F=E-TS. E is the sum of the following terms:
     one-electron contribution =   -2293.41350965 Ry
     hartree contribution      =    1230.99440834 Ry
     xc contribution           =    -244.43802555 Ry
     ewald contribution        =   -1699.09914203 Ry

     convergence has been achieved in  19 iterations

     Forces acting on atoms (cartesian axes, Ry/au):

     atom    1 type  1   force =    -0.00002627    0.00004353    0.00607835
     atom    2 type  1   force =     0.00001811   -0.00003089   -0.00628641
     atom    3 type  2   force =    -0.00002493   -0.00002689    0.00039369
     atom    4 type  2   force =    -0.00001961   -0.00000878   -0.00010102
     atom    5 type  3   force =     0.00003478    0.00000352    0.00311973
     atom    6 type  3   force =     0.00001792    0.00001951   -0.00320433

     Total force =     0.009830     Total SCF correction =     0.001240
     SCF correction compared to forces is large: reduce conv_thr to get better values


     Computing stress (Cartesian axis) and pressure

          total   stress  (Ry/bohr**3)                   (kbar)     P=      -12.98
  -0.00008217  -0.00000273  -0.00000218          -12.09       -0.40       -0.32
  -0.00000273  -0.00007951  -0.00000127           -0.40      -11.70       -0.19
  -0.00000218  -0.00000127  -0.00010293           -0.32       -0.19      -15.14


     Writing all to output data dir /home/tenant3/nexus-mat/dft/runs/dft-paper-worker-04/jobs/Pt-Pd-Rh-12_Pd2Pt2Rh2/tmp/Pt-Pd-Rh-12_Pd2Pt2Rh2.save/ :
     XML data file, charge density, pseudopotentials, collected wavefunctions

     init_run     :    275.92s CPU    988.17s WALL (       1 calls)
     electrons    :  11468.42s CPU  54861.56s WALL (       1 calls)
     forces       :    133.11s CPU    668.89s WALL (       1 calls)
     stress       :    446.78s CPU   2244.24s WALL (       1 calls)

     Called by init_run:
     wfcinit      :    271.80s CPU    971.15s WALL (       1 calls)
     potinit      :      0.42s CPU      1.62s WALL (       1 calls)
     hinit0       :      0.77s CPU      2.71s WALL (       1 calls)

     Called by electrons:
     c_bands      :  10303.69s CPU  49129.51s WALL (      19 calls)
     sum_band     :   1119.16s CPU   5452.09s WALL (      19 calls)
     v_of_rho     :      4.13s CPU     20.06s WALL (      20 calls)
     newd         :     43.37s CPU    267.58s WALL (      20 calls)
     mix_rho      :      0.70s CPU      3.37s WALL (      19 calls)

     Called by c_bands:
     init_us_2    :     51.53s CPU    245.77s WALL (    6150 calls)
     cegterg      :  10135.60s CPU  48326.14s WALL (    2850 calls)

     Called by *egterg:
     cdiaghg      :     81.36s CPU    389.92s WALL (    8709 calls)
     h_psi        :   4430.05s CPU  21610.56s WALL (    8859 calls)
     s_psi        :   1196.14s CPU   5555.56s WALL (    8859 calls)
     g_psi        :      7.49s CPU     35.32s WALL (    5859 calls)

     Called by h_psi:
     h_psi:calbec :   1464.49s CPU   6808.26s WALL (    8859 calls)
     vloc_psi     :   1758.84s CPU   9082.72s WALL (    8859 calls)
                                        0.00s GPU  (    8859 calls)
     add_vuspsi   :   1196.16s CPU   5547.70s WALL (    8859 calls)

     General routines
     calbec       :   2632.08s CPU  12503.23s WALL (   14259 calls)
     fft          :      3.11s CPU     14.72s WALL (     283 calls)
     ffts         :      0.11s CPU      0.58s WALL (      39 calls)
     fftw         :   1857.06s CPU   9712.60s WALL ( 1238116 calls)
     interpolate  :      0.33s CPU      1.60s WALL (      20 calls)


     PWSCF        :      3h25m CPU     16h19m WALL


   This run was terminated on:  17:46: 3  21Jul2026            

=------------------------------------------------------------------------------=
   JOB DONE.
=------------------------------------------------------------------------------=
