
     Program PWSCF v.7.5 starts on 20Jul2026 at 14:54: 3 

     This program is part of the open-source Quantum ESPRESSO suite
     for quantum simulation of materials; please cite
         "P. Giannozzi et al., J. Phys.:Condens. Matter 21 395502 (2009);
         "P. Giannozzi et al., J. Phys.:Condens. Matter 29 465901 (2017);
         "P. Giannozzi et al., J. Chem. Phys. 152 154105 (2020);
          URL http://www.quantum-espresso.org", 
     in publications or presentations arising from this work. More details at
     http://www.quantum-espresso.org/quote

     Serial multi-threaded version, running on    1 processor cores
     26681 MiB available memory on the printing compute node when the environment starts

     Reading input from /home/tenant3/nexus-mat/dft/runs/dft-static-v3-worker-04/jobs/Pd-Rh-16_Pd5Rh7/input.in

     Current dimensions of program PWSCF are:
     Max number of different atomic species (ntypx) = 10
     Max number of k-points (npk) =  40000
     Max angular momentum in pseudopotentials (lmaxx) =  4
     Message from routine setup:
     no reason to have ecutrho>4*ecutwfc


     G-vector sticks info
     --------------------
     sticks:   dense  smooth     PW     G-vecs:    dense   smooth      PW
     Sum        5389    2707    751               529293   187217   27467

     Using Slab Decomposition



     bravais-lattice index     =            0
     lattice parameter (alat)  =       5.2168  a.u.
     unit-cell volume          =    1200.3073 (a.u.)^3
     number of atoms/cell      =           12
     number of atomic types    =            2
     number of electrons       =       209.00
     number of Kohn-Sham states=          126
     kinetic-energy cutoff     =     110.0000  Ry
     charge density cutoff     =     880.0000  Ry
     scf convergence threshold =      1.0E-08
     mixing beta               =       0.3000
     number of iterations used =            8  plain     mixing
     Exchange-correlation= PBE
                           (   1   4   3   4   0   0   0)

     celldm(1)=   5.216821  celldm(2)=   0.000000  celldm(3)=   0.000000
     celldm(4)=   0.000000  celldm(5)=   0.000000  celldm(6)=   0.000000

     crystal axes: (cart. coord. in units of alat)
               a(1) = (   1.000000   0.000000   0.000792 )  
               a(2) = (   0.002041   2.831337  -0.002193 )  
               a(3) = (   0.000000   0.000000   2.985955 )  

     reciprocal axes: (cart. coord. in units 2 pi/alat)
               b(1) = (  1.000000 -0.000721  0.000000 )  
               b(2) = (  0.000000  0.353190  0.000000 )  
               b(3) = ( -0.000265  0.000260  0.334901 )  


     PseudoPot. # 1 for Pd read from file:
     /home/tenant3/nexus-mat/dft/pseudo/SSSP_1.3.0_PBE_precision/Pd_ONCV_PBE-1.0.oncvpsp.upf
     MD5 check sum: eb77f42b51d86fb18e25f68156a31cf1
     Pseudo is Norm-conserving, Zval = 18.0
     Generated using ONCVPSP code by D. R. Hamann
     Using radial grid of 1410 points,  6 beta functions with: 
                l(1) =   0
                l(2) =   0
                l(3) =   1
                l(4) =   1
                l(5) =   2
                l(6) =   2

     PseudoPot. # 2 for Rh read from file:
     /home/tenant3/nexus-mat/dft/pseudo/SSSP_1.3.0_PBE_precision/Rh_ONCV_PBE-1.0.oncvpsp.upf
     MD5 check sum: ba07c69523b14cacd10683cd4c4284c1
     Pseudo is Norm-conserving, Zval = 17.0
     Generated using ONCVPSP code by D. R. Hamann
     Using radial grid of 1442 points,  6 beta functions with: 
                l(1) =   0
                l(2) =   0
                l(3) =   1
                l(4) =   1
                l(5) =   2
                l(6) =   2

     atomic species   valence    mass     pseudopotential
     Pd               18.00   106.42000     Pd( 1.00)
     Rh               17.00   102.90549     Rh( 1.00)

     No symmetry found



   Cartesian axes

     site n.     atom                  positions (alat units)
         1        Pd     tau(   1) = (   0.2971140   2.3837763   0.2620303  )
         2        Pd     tau(   2) = (   0.2962216   0.9748047   1.2630155  )
         3        Pd     tau(   3) = (   0.7957996   0.2699705   0.7651999  )
         4        Pd     tau(   4) = (   0.7967992   1.6836846   1.7590447  )
         5        Pd     tau(   5) = (   0.7956184   0.2716628   2.7574306  )
         6        Rh     tau(   6) = (   0.7956715   0.2552438   1.7698358  )
         7        Rh     tau(   7) = (   0.2962689   0.9737099   2.2639172  )
         8        Rh     tau(   8) = (   0.7966680   1.6858501   0.7565328  )
         9        Rh     tau(   9) = (   0.2962314   1.0040094   0.2602783  )
        10        Rh     tau(  10) = (   0.7966485   1.6754489   2.7463352  )
        11        Rh     tau(  11) = (   0.2971633   2.3904686   2.2483325  )
        12        Rh     tau(  12) = (   0.2973129   2.3908673   1.2654920  )

     number of k points=    80  Marzari-Vanderbilt smearing, width (Ry)=  0.0200
                       cart. coord. in units 2pi/alat
        k(    1) = (   0.0499668   0.0441452   0.0418627), wk =   0.0250000
        k(    2) = (   0.0499005   0.0442100   0.1255880), wk =   0.0250000
        k(    3) = (   0.0500995   0.0440154  -0.1255880), wk =   0.0250000
        k(    4) = (   0.0500332   0.0440803  -0.0418627), wk =   0.0250000
        k(    5) = (   0.0499668   0.1324427   0.0418627), wk =   0.0250000
        k(    6) = (   0.0499005   0.1325076   0.1255880), wk =   0.0250000
        k(    7) = (   0.0500995   0.1323129  -0.1255880), wk =   0.0250000
        k(    8) = (   0.0500332   0.1323778  -0.0418627), wk =   0.0250000
        k(    9) = (   0.0499668  -0.1324499   0.0418627), wk =   0.0250000
        k(   10) = (   0.0499005  -0.1323850   0.1255880), wk =   0.0250000
        k(   11) = (   0.0500995  -0.1325797  -0.1255880), wk =   0.0250000
        k(   12) = (   0.0500332  -0.1325148  -0.0418627), wk =   0.0250000
        k(   13) = (   0.0499668  -0.0441524   0.0418627), wk =   0.0250000
        k(   14) = (   0.0499005  -0.0440875   0.1255880), wk =   0.0250000
        k(   15) = (   0.0500995  -0.0442821  -0.1255880), wk =   0.0250000
        k(   16) = (   0.0500332  -0.0442172  -0.0418627), wk =   0.0250000
        k(   17) = (   0.1499669   0.0440731   0.0418627), wk =   0.0250000
        k(   18) = (   0.1499005   0.0441380   0.1255880), wk =   0.0250000
        k(   19) = (   0.1500996   0.0439433  -0.1255880), wk =   0.0250000
        k(   20) = (   0.1500332   0.0440082  -0.0418627), wk =   0.0250000
        k(   21) = (   0.1499669   0.1323706   0.0418627), wk =   0.0250000
        k(   22) = (   0.1499005   0.1324355   0.1255880), wk =   0.0250000
        k(   23) = (   0.1500996   0.1322408  -0.1255880), wk =   0.0250000
        k(   24) = (   0.1500332   0.1323057  -0.0418627), wk =   0.0250000
        k(   25) = (   0.1499669  -0.1325220   0.0418627), wk =   0.0250000
        k(   26) = (   0.1499005  -0.1324571   0.1255880), wk =   0.0250000
        k(   27) = (   0.1500996  -0.1326517  -0.1255880), wk =   0.0250000
        k(   28) = (   0.1500332  -0.1325868  -0.0418627), wk =   0.0250000
        k(   29) = (   0.1499669  -0.0442244   0.0418627), wk =   0.0250000
        k(   30) = (   0.1499005  -0.0441596   0.1255880), wk =   0.0250000
        k(   31) = (   0.1500996  -0.0443542  -0.1255880), wk =   0.0250000
        k(   32) = (   0.1500332  -0.0442893  -0.0418627), wk =   0.0250000
        k(   33) = (   0.2499669   0.0440010   0.0418627), wk =   0.0250000
        k(   34) = (   0.2499006   0.0440659   0.1255880), wk =   0.0250000
        k(   35) = (   0.2500996   0.0438712  -0.1255880), wk =   0.0250000
        k(   36) = (   0.2500333   0.0439361  -0.0418627), wk =   0.0250000
        k(   37) = (   0.2499669   0.1322985   0.0418627), wk =   0.0250000
        k(   38) = (   0.2499006   0.1323634   0.1255880), wk =   0.0250000
        k(   39) = (   0.2500996   0.1321687  -0.1255880), wk =   0.0250000
        k(   40) = (   0.2500333   0.1322336  -0.0418627), wk =   0.0250000
        k(   41) = (   0.2499669  -0.1325940   0.0418627), wk =   0.0250000
        k(   42) = (   0.2499006  -0.1325292   0.1255880), wk =   0.0250000
        k(   43) = (   0.2500996  -0.1327238  -0.1255880), wk =   0.0250000
        k(   44) = (   0.2500333  -0.1326589  -0.0418627), wk =   0.0250000
        k(   45) = (   0.2499669  -0.0442965   0.0418627), wk =   0.0250000
        k(   46) = (   0.2499006  -0.0442316   0.1255880), wk =   0.0250000
        k(   47) = (   0.2500996  -0.0444263  -0.1255880), wk =   0.0250000
        k(   48) = (   0.2500333  -0.0443614  -0.0418627), wk =   0.0250000
        k(   49) = (   0.3499669   0.0439289   0.0418627), wk =   0.0250000
        k(   50) = (   0.3499006   0.0439938   0.1255880), wk =   0.0250000
        k(   51) = (   0.3500996   0.0437991  -0.1255880), wk =   0.0250000
        k(   52) = (   0.3500333   0.0438640  -0.0418627), wk =   0.0250000
        k(   53) = (   0.3499669   0.1322264   0.0418627), wk =   0.0250000
        k(   54) = (   0.3499006   0.1322913   0.1255880), wk =   0.0250000
        k(   55) = (   0.3500996   0.1320967  -0.1255880), wk =   0.0250000
        k(   56) = (   0.3500333   0.1321615  -0.0418627), wk =   0.0250000
        k(   57) = (   0.3499669  -0.1326661   0.0418627), wk =   0.0250000
        k(   58) = (   0.3499006  -0.1326012   0.1255880), wk =   0.0250000
        k(   59) = (   0.3500996  -0.1327959  -0.1255880), wk =   0.0250000
        k(   60) = (   0.3500333  -0.1327310  -0.0418627), wk =   0.0250000
        k(   61) = (   0.3499669  -0.0443686   0.0418627), wk =   0.0250000
        k(   62) = (   0.3499006  -0.0443037   0.1255880), wk =   0.0250000
        k(   63) = (   0.3500996  -0.0444984  -0.1255880), wk =   0.0250000
        k(   64) = (   0.3500333  -0.0444335  -0.0418627), wk =   0.0250000
        k(   65) = (   0.4499670   0.0438568   0.0418627), wk =   0.0250000
        k(   66) = (   0.4499006   0.0439217   0.1255880), wk =   0.0250000
        k(   67) = (   0.4500997   0.0437271  -0.1255880), wk =   0.0250000
        k(   68) = (   0.4500333   0.0437919  -0.0418627), wk =   0.0250000
        k(   69) = (   0.4499670   0.1321543   0.0418627), wk =   0.0250000
        k(   70) = (   0.4499006   0.1322192   0.1255880), wk =   0.0250000
        k(   71) = (   0.4500997   0.1320246  -0.1255880), wk =   0.0250000
        k(   72) = (   0.4500333   0.1320895  -0.0418627), wk =   0.0250000
        k(   73) = (   0.4499670  -0.1327382   0.0418627), wk =   0.0250000
        k(   74) = (   0.4499006  -0.1326733   0.1255880), wk =   0.0250000
        k(   75) = (   0.4500997  -0.1328680  -0.1255880), wk =   0.0250000
        k(   76) = (   0.4500333  -0.1328031  -0.0418627), wk =   0.0250000
        k(   77) = (   0.4499670  -0.0444407   0.0418627), wk =   0.0250000
        k(   78) = (   0.4499006  -0.0443758   0.1255880), wk =   0.0250000
        k(   79) = (   0.4500997  -0.0445705  -0.1255880), wk =   0.0250000
        k(   80) = (   0.4500333  -0.0445056  -0.0418627), wk =   0.0250000

     Dense  grid:   529293 G-vectors     FFT dimensions: (  50, 144, 150)

     Smooth grid:   187217 G-vectors     FFT dimensions: (  36, 100, 108)

     Estimated max dynamical RAM per process >       4.12 GB

     Initial potential from superposition of free atoms

     starting charge     208.9952, renormalised to     209.0000
     Starting wfcs are  120 randomized atomic wfcs +    6 random wfcs

     total cpu time spent up to now is      437.6 secs

     Self-consistent Calculation

     iteration #  1     ecut=   110.00 Ry     beta= 0.30
     Davidson diagonalization with overlap
     ethr =  1.00E-02,  avg # of iterations =  3.0

     Threshold (ethr) on eigenvalues was too large:
     Diagonalizing with lowered threshold

     Davidson diagonalization with overlap
     ethr =  9.05E-05,  avg # of iterations =  2.5

     total cpu time spent up to now is     3815.9 secs

     total energy              =   -2784.41434565 Ry
     estimated scf accuracy    <       0.18511330 Ry

     iteration #  2     ecut=   110.00 Ry     beta= 0.30
     Davidson diagonalization with overlap
     ethr =  8.86E-05,  avg # of iterations =  2.4

     total cpu time spent up to now is     5427.4 secs

     total energy              =   -2784.27172388 Ry
     estimated scf accuracy    <       4.18872148 Ry

     iteration #  3     ecut=   110.00 Ry     beta= 0.30
     Davidson diagonalization with overlap
     ethr =  8.86E-05,  avg # of iterations =  2.9

     total cpu time spent up to now is     7220.2 secs

     total energy              =   -2784.43293994 Ry
     estimated scf accuracy    <       0.83666446 Ry

     iteration #  4     ecut=   110.00 Ry     beta= 0.30
     Davidson diagonalization with overlap
     ethr =  8.86E-05,  avg # of iterations =  1.1

     total cpu time spent up to now is     9102.3 secs

     total energy              =   -2784.45657299 Ry
     estimated scf accuracy    <       0.19764155 Ry

     iteration #  5     ecut=   110.00 Ry     beta= 0.30
     Davidson diagonalization with overlap
     ethr =  8.86E-05,  avg # of iterations =  1.0

     total cpu time spent up to now is    10658.8 secs

     total energy              =   -2784.45576282 Ry
     estimated scf accuracy    <       0.26190450 Ry

     iteration #  6     ecut=   110.00 Ry     beta= 0.30
     Davidson diagonalization with overlap
     ethr =  8.86E-05,  avg # of iterations =  1.0

     total cpu time spent up to now is    12816.3 secs

     total energy              =   -2784.46106832 Ry
     estimated scf accuracy    <       0.10875289 Ry

     iteration #  7     ecut=   110.00 Ry     beta= 0.30
     Davidson diagonalization with overlap
     ethr =  5.20E-05,  avg # of iterations =  1.0

     total cpu time spent up to now is    14161.6 secs

     total energy              =   -2784.46265127 Ry
     estimated scf accuracy    <       0.09652030 Ry

     iteration #  8     ecut=   110.00 Ry     beta= 0.30
     Davidson diagonalization with overlap
     ethr =  4.62E-05,  avg # of iterations =  1.0

     total cpu time spent up to now is    15551.7 secs

     total energy              =   -2784.46479721 Ry
     estimated scf accuracy    <       0.02561500 Ry

     iteration #  9     ecut=   110.00 Ry     beta= 0.30
     Davidson diagonalization with overlap
     ethr =  1.23E-05,  avg # of iterations =  1.8

     total cpu time spent up to now is    16823.3 secs

     total energy              =   -2784.46515883 Ry
     estimated scf accuracy    <       0.02653859 Ry

     iteration # 10     ecut=   110.00 Ry     beta= 0.30
     Davidson diagonalization with overlap
     ethr =  1.23E-05,  avg # of iterations =  1.0

     total cpu time spent up to now is    17961.1 secs

     total energy              =   -2784.46581963 Ry
     estimated scf accuracy    <       0.00772579 Ry

     iteration # 11     ecut=   110.00 Ry     beta= 0.30
     Davidson diagonalization with overlap
     ethr =  3.70E-06,  avg # of iterations =  1.6

     total cpu time spent up to now is    19141.3 secs

     total energy              =   -2784.46614220 Ry
     estimated scf accuracy    <       0.00048504 Ry

     iteration # 12     ecut=   110.00 Ry     beta= 0.30
     Davidson diagonalization with overlap
     ethr =  2.32E-07,  avg # of iterations =  1.3

     total cpu time spent up to now is    20290.7 secs

     total energy              =   -2784.46608347 Ry
     estimated scf accuracy    <       0.00115616 Ry

     iteration # 13     ecut=   110.00 Ry     beta= 0.30
     Davidson diagonalization with overlap
     ethr =  2.32E-07,  avg # of iterations =  1.9

     total cpu time spent up to now is    21596.8 secs

     total energy              =   -2784.46600756 Ry
     estimated scf accuracy    <       0.00497871 Ry

     iteration # 14     ecut=   110.00 Ry     beta= 0.30
     Davidson diagonalization with overlap
     ethr =  2.32E-07,  avg # of iterations =  1.0

     total cpu time spent up to now is    22746.8 secs

     total energy              =   -2784.46615812 Ry
     estimated scf accuracy    <       0.00116524 Ry

     iteration # 15     ecut=   110.00 Ry     beta= 0.30
     Davidson diagonalization with overlap
     ethr =  2.32E-07,  avg # of iterations =  1.0

     total cpu time spent up to now is    23943.7 secs

     total energy              =   -2784.46619910 Ry
     estimated scf accuracy    <       0.00001128 Ry

     iteration # 16     ecut=   110.00 Ry     beta= 0.30
     Davidson diagonalization with overlap
     ethr =  5.40E-09,  avg # of iterations =  1.2

     total cpu time spent up to now is    25195.1 secs

     total energy              =   -2784.46619807 Ry
     estimated scf accuracy    <       0.00002543 Ry

     iteration # 17     ecut=   110.00 Ry     beta= 0.30
     Davidson diagonalization with overlap
     ethr =  5.40E-09,  avg # of iterations =  1.0

     total cpu time spent up to now is    26690.2 secs

     total energy              =   -2784.46619861 Ry
     estimated scf accuracy    <       0.00003198 Ry

     iteration # 18     ecut=   110.00 Ry     beta= 0.30
     Davidson diagonalization with overlap
     ethr =  5.40E-09,  avg # of iterations =  1.0

     total cpu time spent up to now is    28890.3 secs

     total energy              =   -2784.46619926 Ry
     estimated scf accuracy    <       0.00001842 Ry

     iteration # 19     ecut=   110.00 Ry     beta= 0.30
     Davidson diagonalization with overlap
     ethr =  5.40E-09,  avg # of iterations =  1.0

     total cpu time spent up to now is    30300.5 secs

     total energy              =   -2784.46619958 Ry
     estimated scf accuracy    <       0.00000428 Ry

     iteration # 20     ecut=   110.00 Ry     beta= 0.30
     Davidson diagonalization with overlap
     ethr =  2.05E-09,  avg # of iterations =  1.0

     total cpu time spent up to now is    31689.6 secs

     total energy              =   -2784.46619918 Ry
     estimated scf accuracy    <       0.00002219 Ry

     iteration # 21     ecut=   110.00 Ry     beta= 0.30
     Davidson diagonalization with overlap
     ethr =  2.05E-09,  avg # of iterations =  1.0

     total cpu time spent up to now is    32830.5 secs

     total energy              =   -2784.46619980 Ry
     estimated scf accuracy    <       0.00000084 Ry

     iteration # 22     ecut=   110.00 Ry     beta= 0.30
     Davidson diagonalization with overlap
     ethr =  4.04E-10,  avg # of iterations =  1.0

     total cpu time spent up to now is    34027.7 secs

     total energy              =   -2784.46619975 Ry
     estimated scf accuracy    <       0.00000152 Ry

     iteration # 23     ecut=   110.00 Ry     beta= 0.30
     Davidson diagonalization with overlap
     ethr =  4.04E-10,  avg # of iterations =  1.0

     total cpu time spent up to now is    35268.2 secs

     total energy              =   -2784.46619978 Ry
     estimated scf accuracy    <       0.00000073 Ry

     iteration # 24     ecut=   110.00 Ry     beta= 0.30
     Davidson diagonalization with overlap
     ethr =  3.48E-10,  avg # of iterations =  1.0

     total cpu time spent up to now is    36487.9 secs

     total energy              =   -2784.46619978 Ry
     estimated scf accuracy    <       0.00000154 Ry

     iteration # 25     ecut=   110.00 Ry     beta= 0.30
     Davidson diagonalization with overlap
     ethr =  3.48E-10,  avg # of iterations =  1.0

     total cpu time spent up to now is    37439.9 secs

     total energy              =   -2784.46619982 Ry
     estimated scf accuracy    <       0.00000040 Ry

     iteration # 26     ecut=   110.00 Ry     beta= 0.30
     Davidson diagonalization with overlap
     ethr =  1.90E-10,  avg # of iterations =  1.0

     total cpu time spent up to now is    38314.0 secs

     total energy              =   -2784.46619983 Ry
     estimated scf accuracy    <       0.00000014 Ry

     iteration # 27     ecut=   110.00 Ry     beta= 0.30
     Davidson diagonalization with overlap
     ethr =  6.73E-11,  avg # of iterations =  1.0

     total cpu time spent up to now is    39097.0 secs

     total energy              =   -2784.46619984 Ry
     estimated scf accuracy    <       0.00000002 Ry

     iteration # 28     ecut=   110.00 Ry     beta= 0.30
     Davidson diagonalization with overlap
     ethr =  1.00E-11,  avg # of iterations =  1.0

     total cpu time spent up to now is    39844.5 secs

     total energy              =   -2784.46619984 Ry
     estimated scf accuracy    <       0.00000003 Ry

     iteration # 29     ecut=   110.00 Ry     beta= 0.30
     Davidson diagonalization with overlap
     ethr =  1.00E-11,  avg # of iterations =  1.0

     total cpu time spent up to now is    40585.6 secs

     total energy              =   -2784.46619984 Ry
     estimated scf accuracy    <       0.00000005 Ry

     iteration # 30     ecut=   110.00 Ry     beta= 0.30
     Davidson diagonalization with overlap
     ethr =  1.00E-11,  avg # of iterations =  1.0

     total cpu time spent up to now is    41330.9 secs

     End of self-consistent calculation

          k = 0.0500 0.0441 0.0419 ( 23390 PWs)   bands (ev):

   -63.8904 -63.8170 -63.7484 -63.7149 -63.6555 -57.9251 -57.8426 -57.8376
   -57.8229 -57.8028 -57.7984 -57.7658 -29.6559 -29.6313 -29.5968 -29.5705
   -29.5029 -29.4863 -29.4446 -29.4411 -29.4084 -29.4056 -29.3848 -29.3204
   -29.2930 -29.2628 -29.2305 -25.9690 -25.9148 -25.8323 -25.8165 -25.7445
   -25.6903 -25.6641 -25.6516 -25.6295 -25.6018 -25.5815 -25.5696 -25.5610
   -25.5519 -25.5438 -25.5246 -25.5154 -25.4979 -25.4885 -25.4792 -25.4536
    13.5353  15.2143  15.2374  15.3697  15.3825  15.5045  15.5131  15.5654
    15.7707  15.8023  15.9624  16.0798  16.3171  16.4573  16.7333  16.7795
    17.0762  17.1438  17.2461  17.5224  17.6041  17.6854  17.7334  17.7901
    17.8674  17.8993  17.9430  17.9666  18.0012  18.0531  18.1367  18.2033
    18.2423  18.2935  18.4095  18.4481  18.5133  18.5156  18.6310  18.7982
    18.9446  19.0481  19.0849  19.2140  19.2589  19.3104  19.4300  19.5454
    19.5840  19.6391  19.7460  19.9245  20.0829  20.1715  20.2156  20.4521
    20.4876  20.6194  20.6472  20.7002  20.8012  20.8997  21.0117  21.0941
    21.2405  21.3870  21.4205  22.3023  22.6909  24.1694  25.9648  27.8625
    28.5152  29.2245  30.0490  30.2382  30.9334  31.8564

          k = 0.0499 0.0442 0.1256 ( 23398 PWs)   bands (ev):

   -63.8904 -63.8170 -63.7484 -63.7149 -63.6555 -57.9251 -57.8438 -57.8365
   -57.8225 -57.8022 -57.7993 -57.7658 -29.6560 -29.6313 -29.5974 -29.5707
   -29.5028 -29.4862 -29.4447 -29.4410 -29.4086 -29.4050 -29.3848 -29.3204
   -29.2930 -29.2626 -29.2305 -25.9621 -25.9235 -25.8402 -25.7945 -25.7527
   -25.6931 -25.6685 -25.6515 -25.6307 -25.5972 -25.5836 -25.5715 -25.5544
   -25.5495 -25.5446 -25.5231 -25.5152 -25.4999 -25.4930 -25.4792 -25.4534
    13.8677  14.4790  15.2995  15.3477  15.4224  15.5664  15.6659  15.7231
    15.7370  15.9603  16.0027  16.1913  16.4098  16.5212  16.6271  16.8851
    17.1094  17.1966  17.2611  17.3943  17.4319  17.5667  17.6033  17.6319
    17.6854  17.7451  17.8388  17.8697  17.9161  18.0180  18.0376  18.1036
    18.1600  18.2085  18.2437  18.3194  18.4510  18.6922  18.7676  18.8112
    18.9315  18.9692  19.1607  19.2881  19.3853  19.4563  19.5071  19.6363
    19.7439  19.8040  19.9103  19.9913  20.0748  20.1470  20.2900  20.3477
    20.3951  20.5325  20.6156  20.7773  20.8688  20.9582  21.0104  21.2275
    21.2829  21.6758  21.8691  22.5188  22.5909  24.1331  25.2599  26.7614
    28.3123  28.7760  30.1385  31.6039  31.7284  32.0534

          k = 0.0501 0.0440-0.1256 ( 23404 PWs)   bands (ev):

   -63.8904 -63.8170 -63.7484 -63.7149 -63.6555 -57.9251 -57.8440 -57.8360
   -57.8230 -57.8032 -57.7982 -57.7658 -29.6560 -29.6312 -29.5974 -29.5708
   -29.5029 -29.4862 -29.4447 -29.4410 -29.4085 -29.4050 -29.3848 -29.3204
   -29.2930 -29.2627 -29.2305 -25.9628 -25.9157 -25.8572 -25.7919 -25.7449
   -25.6889 -25.6657 -25.6523 -25.6316 -25.5981 -25.5852 -25.5705 -25.5590
   -25.5520 -25.5452 -25.5261 -25.5152 -25.4988 -25.4881 -25.4783 -25.4537
    13.8677  14.4790  15.2992  15.3478  15.4225  15.5691  15.6641  15.7213
    15.7374  15.9695  15.9948  16.1914  16.4138  16.5076  16.6322  16.9065
    17.0937  17.2023  17.2524  17.3772  17.4291  17.5731  17.5989  17.6527
    17.6788  17.7432  17.8433  17.8723  17.9194  18.0102  18.0293  18.1103
    18.1825  18.2174  18.2379  18.3077  18.4546  18.6617  18.7669  18.8255
    18.9365  18.9914  19.1193  19.3154  19.3671  19.4389  19.5266  19.6108
    19.7744  19.8640  19.9018  19.9546  20.0441  20.1743  20.2356  20.3504
    20.4599  20.5153  20.6567  20.7984  20.8635  20.9692  21.0059  21.1332
    21.2512  21.7232  21.8817  22.5158  22.5936  24.1308  25.2678  26.7561
    28.2878  28.7960  30.1341  31.6415  31.6966  32.0711

          k = 0.0500 0.0441-0.0419 ( 23395 PWs)   bands (ev):

   -63.8904 -63.8170 -63.7484 -63.7149 -63.6555 -57.9251 -57.8428 -57.8370
   -57.8234 -57.8035 -57.7975 -57.7659 -29.6559 -29.6312 -29.5968 -29.5707
   -29.5030 -29.4863 -29.4446 -29.4411 -29.4083 -29.4055 -29.3847 -29.3204
   -29.2930 -29.2628 -29.2305 -25.9692 -25.9060 -25.8576 -25.8051 -25.7397
   -25.6852 -25.6601 -25.6534 -25.6288 -25.6062 -25.5803 -25.5701 -25.5656
   -25.5549 -25.5432 -25.5268 -25.5155 -25.4966 -25.4859 -25.4773 -25.4539
    13.5353  15.2143  15.2385  15.3613  15.3926  15.5082  15.5128  15.5561
    15.7771  15.7995  15.9617  16.0813  16.3145  16.4602  16.7234  16.7950
    17.0699  17.1317  17.2423  17.5411  17.5996  17.7028  17.7437  17.7965
    17.8375  17.8987  17.9315  17.9441  18.0212  18.0760  18.1388  18.2019
    18.2299  18.2899  18.4013  18.4503  18.4884  18.5278  18.6681  18.7725
    18.9761  19.0542  19.1003  19.1662  19.2559  19.2997  19.4254  19.5518
    19.5831  19.6556  19.7263  19.8888  20.1564  20.2222  20.2600  20.3811
    20.4966  20.5770  20.6378  20.7300  20.7398  20.9558  20.9870  21.0994
    21.2356  21.3524  21.4460  22.3092  22.6962  24.1720  25.9629  27.8570
    28.5511  29.1481  30.0235  30.3080  30.9500  31.8717

          k = 0.0500 0.1324 0.0419 ( 23420 PWs)   bands (ev):

   -63.8904 -63.8170 -63.7484 -63.7149 -63.6555 -57.9250 -57.8442 -57.8377
   -57.8201 -57.8031 -57.7994 -57.7658 -29.6559 -29.6313 -29.5968 -29.5704
   -29.5030 -29.4866 -29.4444 -29.4409 -29.4089 -29.4055 -29.3848 -29.3204
   -29.2930 -29.2626 -29.2305 -25.9606 -25.9269 -25.8371 -25.8055 -25.7502
   -25.6864 -25.6665 -25.6514 -25.6281 -25.5996 -25.5841 -25.5742 -25.5589
   -25.5478 -25.5427 -25.5254 -25.5077 -25.4997 -25.4920 -25.4832 -25.4535
    13.9041  14.5842  15.2687  15.3694  15.3920  15.4206  15.6275  15.6543
    15.6831  15.8293  15.9319  16.0016  16.1018  16.2122  16.8195  17.0058
    17.1828  17.2044  17.3327  17.5556  17.5989  17.8217  17.8585  17.9355
    17.9723  18.0115  18.0384  18.0918  18.1123  18.1471  18.1689  18.2060
    18.2150  18.2931  18.3132  18.3464  18.3705  18.4172  18.4997  18.6850
    18.7877  18.8209  18.9349  19.0494  19.1060  19.3622  19.4966  19.6060
    19.6582  19.7606  19.8959  19.9387  20.0824  20.1986  20.2624  20.3729
    20.5416  20.6236  20.6885  20.7098  20.7461  20.8158  20.9293  21.0355
    21.1153  21.1795  21.4102  22.8233  24.0491  24.3614  25.6789  26.1311
    28.2903  28.4915  28.9137  29.7178  31.6041  33.1676

          k = 0.0499 0.1325 0.1256 ( 23398 PWs)   bands (ev):

   -63.8904 -63.8170 -63.7484 -63.7149 -63.6555 -57.9250 -57.8454 -57.8361
   -57.8203 -57.8044 -57.7982 -57.7658 -29.6559 -29.6310 -29.5974 -29.5709
   -29.5031 -29.4865 -29.4445 -29.4407 -29.4088 -29.4048 -29.3848 -29.3204
   -29.2930 -29.2626 -29.2305 -25.9530 -25.9237 -25.8698 -25.7845 -25.7417
   -25.6840 -25.6644 -25.6519 -25.6294 -25.6006 -25.5897 -25.5750 -25.5606
   -25.5507 -25.5472 -25.5253 -25.5076 -25.4991 -25.4891 -25.4801 -25.4538
    14.2103  14.7312  14.8395  15.1805  15.4698  15.5984  15.6096  15.8426
    15.8525  15.8639  15.8850  16.0036  16.0630  16.1584  16.3513  16.6844
    17.2075  17.3020  17.4447  17.5036  17.5706  17.6183  17.6506  17.7294
    17.9674  18.0391  18.0695  18.1007  18.1264  18.1535  18.1894  18.2200
    18.2310  18.3199  18.3448  18.3645  18.4261  18.5002  18.5624  18.6345
    18.8381  19.0986  19.1203  19.2207  19.2746  19.3287  19.3608  19.4498
    19.5716  19.6297  19.7534  19.8304  19.9090  19.9565  20.0520  20.1742
    20.4388  20.5040  20.6527  20.7191  20.8288  20.9292  21.1678  21.2051
    21.9960  22.1992  22.3814  23.1967  23.4798  23.8343  23.9917  25.0714
    28.5640  29.6667  29.9106  30.7539  31.4000  31.7927

          k = 0.0501 0.1323-0.1256 ( 23402 PWs)   bands (ev):

   -63.8904 -63.8170 -63.7484 -63.7149 -63.6555 -57.9250 -57.8454 -57.8358
   -57.8207 -57.8049 -57.7975 -57.7659 -29.6559 -29.6309 -29.5974 -29.5710
   -29.5032 -29.4865 -29.4446 -29.4407 -29.4087 -29.4047 -29.3848 -29.3204
   -29.2930 -29.2627 -29.2305 -25.9551 -25.9052 -25.8919 -25.7859 -25.7339
   -25.6819 -25.6589 -25.6520 -25.6276 -25.6066 -25.5913 -25.5740 -25.5660
   -25.5530 -25.5466 -25.5260 -25.5080 -25.4983 -25.4870 -25.4777 -25.4541
    14.2094  14.7340  14.8392  15.1790  15.4718  15.5958  15.6090  15.8398
    15.8525  15.8671  15.8907  16.0025  16.0596  16.1577  16.3488  16.6873
    17.2352  17.3090  17.3979  17.4822  17.5385  17.6515  17.6775  17.7389
    17.9832  18.0249  18.0576  18.0770  18.1282  18.1684  18.1789  18.2348
    18.2720  18.2951  18.3431  18.3610  18.4098  18.5069  18.5496  18.6679
    18.8171  19.1053  19.1458  19.1909  19.2955  19.3320  19.4046  19.4282
    19.5623  19.6031  19.7161  19.7788  19.9317  19.9537  20.0841  20.3030
    20.4048  20.4550  20.6403  20.7312  20.8006  20.9378  21.1552  21.2223
    21.9903  22.2120  22.3646  23.1968  23.4872  23.8488  23.9936  25.0572
    28.5483  29.6689  29.9447  30.7311  31.3889  31.8131

          k = 0.0500 0.1324-0.0419 ( 23417 PWs)   bands (ev):

   -63.8904 -63.8170 -63.7484 -63.7149 -63.6555 -57.9250 -57.8443 -57.8373
   -57.8204 -57.8040 -57.7984 -57.7658 -29.6559 -29.6312 -29.5968 -29.5706
   -29.5031 -29.4866 -29.4444 -29.4409 -29.4088 -29.4055 -29.3848 -29.3204
   -29.2930 -29.2627 -29.2305 -25.9616 -25.9191 -25.8559 -25.8002 -25.7422
   -25.6856 -25.6623 -25.6511 -25.6272 -25.6028 -25.5844 -25.5735 -25.5632
   -25.5509 -25.5450 -25.5263 -25.5084 -25.4972 -25.4895 -25.4812 -25.4538
    13.9038  14.5849  15.2703  15.3671  15.3908  15.4247  15.6207  15.6605
    15.6822  15.8220  15.9436  15.9937  16.1066  16.2127  16.8261  16.9616
    17.2042  17.2480  17.3152  17.5531  17.5976  17.8099  17.8638  17.9242
    17.9724  17.9996  18.0274  18.0827  18.1171  18.1520  18.1793  18.1996
    18.2406  18.2861  18.3233  18.3424  18.3765  18.4016  18.5224  18.6556
    18.7835  18.8403  18.9491  19.0523  19.1276  19.3434  19.4745  19.5715
    19.6407  19.7626  19.9242  19.9901  20.0897  20.2078  20.2784  20.4028
    20.4676  20.5787  20.6573  20.6889  20.7801  20.8570  20.9435  21.0644
    21.1075  21.1797  21.3728  22.8363  24.0486  24.3671  25.6808  26.1170
    28.3340  28.4858  28.8340  29.7715  31.6231  33.0703

          k = 0.0500-0.1324 0.0419 ( 23426 PWs)   bands (ev):

   -63.8904 -63.8170 -63.7484 -63.7149 -63.6555 -57.9250 -57.8443 -57.8373
   -57.8204 -57.8039 -57.7984 -57.7658 -29.6559 -29.6312 -29.5968 -29.5706
   -29.5031 -29.4866 -29.4444 -29.4409 -29.4088 -29.4055 -29.3848 -29.3204
   -29.2930 -29.2627 -29.2305 -25.9615 -25.9192 -25.8557 -25.8003 -25.7423
   -25.6855 -25.6623 -25.6512 -25.6271 -25.6027 -25.5845 -25.5734 -25.5633
   -25.5508 -25.5450 -25.5263 -25.5085 -25.4972 -25.4895 -25.4812 -25.4538
    13.9043  14.5840  15.2706  15.3671  15.3908  15.4248  15.6201  15.6606
    15.6818  15.8226  15.9435  15.9940  16.1062  16.2123  16.8263  16.9611
    17.2036  17.2482  17.3193  17.5550  17.5992  17.8049  17.8637  17.9237
    17.9701  17.9992  18.0261  18.0815  18.1204  18.1516  18.1780  18.1971
    18.2425  18.2874  18.3235  18.3417  18.3795  18.4027  18.5204  18.6558
    18.7833  18.8403  18.9499  19.0537  19.1285  19.3415  19.4737  19.5710
    19.6411  19.7631  19.9264  19.9903  20.0894  20.2087  20.2764  20.4019
    20.4671  20.5775  20.6584  20.6898  20.7808  20.8564  20.9449  21.0639
    21.1076  21.1786  21.3723  22.8323  24.0536  24.3687  25.6809  26.1162
    28.3343  28.4844  28.8330  29.7682  31.6256  33.0702

          k = 0.0499-0.1324 0.1256 ( 23392 PWs)   bands (ev):

   -63.8904 -63.8170 -63.7484 -63.7149 -63.6555 -57.9250 -57.8454 -57.8358
   -57.8207 -57.8049 -57.7975 -57.7659 -29.6559 -29.6309 -29.5974 -29.5710
   -29.5032 -29.4865 -29.4446 -29.4407 -29.4087 -29.4047 -29.3848 -29.3204
   -29.2930 -29.2627 -29.2305 -25.9551 -25.9053 -25.8919 -25.7860 -25.7338
   -25.6819 -25.6589 -25.6521 -25.6275 -25.6067 -25.5913 -25.5740 -25.5661
   -25.5530 -25.5467 -25.5260 -25.5082 -25.4982 -25.4870 -25.4777 -25.4541
    14.2095  14.7348  14.8382  15.1788  15.4723  15.5956  15.6094  15.8395
    15.8524  15.8671  15.8907  16.0028  16.0588  16.1573  16.3492  16.6870
    17.2350  17.3083  17.3979  17.4878  17.5409  17.6464  17.6775  17.7393
    17.9807  18.0192  18.0615  18.0808  18.1239  18.1672  18.1808  18.2340
    18.2657  18.2954  18.3436  18.3630  18.4147  18.5093  18.5516  18.6681
    18.8188  19.1044  19.1458  19.1895  19.2960  19.3321  19.4038  19.4275
    19.5627  19.6019  19.7162  19.7811  19.9306  19.9522  20.0851  20.3029
    20.4052  20.4554  20.6384  20.7304  20.8004  20.9365  21.1549  21.2230
    21.9912  22.2122  22.3639  23.2024  23.4888  23.8440  23.9938  25.0570
    28.5482  29.6681  29.9454  30.7295  31.3889  31.8093

          k = 0.0501-0.1326-0.1256 ( 23401 PWs)   bands (ev):

   -63.8904 -63.8170 -63.7484 -63.7149 -63.6555 -57.9250 -57.8454 -57.8361
   -57.8203 -57.8044 -57.7982 -57.7658 -29.6559 -29.6310 -29.5974 -29.5709
   -29.5031 -29.4865 -29.4445 -29.4407 -29.4088 -29.4048 -29.3848 -29.3204
   -29.2930 -29.2626 -29.2305 -25.9530 -25.9236 -25.8700 -25.7845 -25.7416
   -25.6840 -25.6643 -25.6519 -25.6294 -25.6007 -25.5897 -25.5751 -25.5607
   -25.5506 -25.5472 -25.5253 -25.5077 -25.4991 -25.4891 -25.4801 -25.4538
    14.2112  14.7310  14.8390  15.1796  15.4703  15.5988  15.6102  15.8424
    15.8522  15.8639  15.8850  16.0040  16.0622  16.1575  16.3515  16.6837
    17.2068  17.2984  17.4457  17.5046  17.5687  17.6206  17.6509  17.7401
    17.9577  18.0364  18.0711  18.1011  18.1269  18.1531  18.1902  18.2180
    18.2309  18.3193  18.3460  18.3599  18.4297  18.5065  18.5627  18.6341
    18.8393  19.1005  19.1197  19.2217  19.2749  19.3271  19.3605  19.4517
    19.5708  19.6295  19.7497  19.8310  19.9095  19.9565  20.0516  20.1743
    20.4383  20.5037  20.6516  20.7182  20.8274  20.9273  21.1672  21.2054
    21.9973  22.2037  22.3825  23.1974  23.4808  23.8343  23.9906  25.0668
    28.5652  29.6666  29.9105  30.7574  31.3977  31.7943

          k = 0.0500-0.1325-0.0419 ( 23419 PWs)   bands (ev):

   -63.8904 -63.8170 -63.7484 -63.7149 -63.6555 -57.9250 -57.8442 -57.8376
   -57.8201 -57.8031 -57.7994 -57.7658 -29.6559 -29.6313 -29.5968 -29.5704
   -29.5030 -29.4866 -29.4444 -29.4409 -29.4089 -29.4055 -29.3848 -29.3204
   -29.2930 -29.2626 -29.2305 -25.9605 -25.9269 -25.8373 -25.8054 -25.7502
   -25.6864 -25.6665 -25.6514 -25.6281 -25.5996 -25.5841 -25.5742 -25.5589
   -25.5477 -25.5427 -25.5254 -25.5078 -25.4997 -25.4920 -25.4831 -25.4535
    13.9048  14.5836  15.2681  15.3690  15.3923  15.4210  15.6273  15.6544
    15.6831  15.8298  15.9316  16.0020  16.1017  16.2116  16.8187  17.0051
    17.1824  17.2042  17.3341  17.5585  17.5968  17.8219  17.8642  17.9374
    17.9708  18.0118  18.0351  18.0908  18.1101  18.1453  18.1698  18.2058
    18.2151  18.2934  18.3156  18.3442  18.3704  18.4153  18.5019  18.6839
    18.7881  18.8204  18.9361  19.0518  19.1073  19.3626  19.4959  19.6069
    19.6581  19.7601  19.8961  19.9381  20.0833  20.1978  20.2616  20.3738
    20.5409  20.6229  20.6877  20.7096  20.7461  20.8159  20.9278  21.0346
    21.1142  21.1781  21.4141  22.8231  24.0502  24.3646  25.6774  26.1275
    28.2896  28.4915  28.9156  29.7189  31.6036  33.1658

          k = 0.0500-0.0442 0.0419 ( 23386 PWs)   bands (ev):

   -63.8904 -63.8170 -63.7484 -63.7149 -63.6555 -57.9251 -57.8428 -57.8371
   -57.8234 -57.8035 -57.7975 -57.7659 -29.6559 -29.6312 -29.5968 -29.5707
   -29.5030 -29.4863 -29.4446 -29.4411 -29.4083 -29.4055 -29.3847 -29.3204
   -29.2930 -29.2628 -29.2305 -25.9692 -25.9060 -25.8576 -25.8051 -25.7397
   -25.6851 -25.6601 -25.6535 -25.6287 -25.6062 -25.5803 -25.5700 -25.5656
   -25.5549 -25.5432 -25.5268 -25.5156 -25.4965 -25.4859 -25.4773 -25.4539
    13.5353  15.2142  15.2391  15.3608  15.3923  15.5084  15.5130  15.5560
    15.7775  15.7994  15.9609  16.0811  16.3145  16.4604  16.7238  16.7953
    17.0683  17.1314  17.2438  17.5429  17.6064  17.7031  17.7438  17.7917
    17.8335  17.8960  17.9327  17.9475  18.0150  18.0674  18.1471  18.2026
    18.2291  18.2896  18.4019  18.4509  18.4885  18.5280  18.6734  18.7756
    18.9747  19.0540  19.0992  19.1665  19.2567  19.2993  19.4245  19.5484
    19.5821  19.6578  19.7269  19.8885  20.1575  20.2235  20.2614  20.3813
    20.4983  20.5770  20.6362  20.7289  20.7390  20.9547  20.9844  21.0978
    21.2370  21.3537  21.4401  22.3157  22.6981  24.1695  25.9642  27.8555
    28.5515  29.1487  30.0217  30.3097  30.9468  31.8724

          k = 0.0499-0.0441 0.1256 ( 23401 PWs)   bands (ev):

   -63.8904 -63.8170 -63.7484 -63.7149 -63.6555 -57.9251 -57.8440 -57.8360
   -57.8230 -57.8032 -57.7982 -57.7658 -29.6560 -29.6312 -29.5974 -29.5708
   -29.5029 -29.4862 -29.4447 -29.4409 -29.4085 -29.4050 -29.3848 -29.3204
   -29.2930 -29.2627 -29.2305 -25.9628 -25.9157 -25.8574 -25.7919 -25.7447
   -25.6889 -25.6656 -25.6523 -25.6317 -25.5980 -25.5854 -25.5704 -25.5591
   -25.5520 -25.5452 -25.5260 -25.5153 -25.4988 -25.4881 -25.4783 -25.4537
    13.8674  14.4798  15.2993  15.3482  15.4221  15.5681  15.6636  15.7215
    15.7377  15.9699  15.9951  16.1915  16.4132  16.5072  16.6317  16.9071
    17.0931  17.2019  17.2522  17.3776  17.4318  17.5725  17.5978  17.6488
    17.6896  17.7431  17.8379  17.8698  17.9161  18.0061  18.0358  18.1066
    18.1808  18.2166  18.2396  18.3081  18.4623  18.6623  18.7680  18.8275
    18.9378  18.9925  19.1184  19.3145  19.3647  19.4363  19.5249  19.6140
    19.7726  19.8626  19.9014  19.9548  20.0451  20.1745  20.2364  20.3514
    20.4590  20.5153  20.6551  20.7967  20.8613  20.9675  21.0053  21.1342
    21.2528  21.7289  21.8807  22.5157  22.5949  24.1314  25.2644  26.7569
    28.2879  28.7976  30.1320  31.6396  31.6978  32.0717

          k = 0.0501-0.0443-0.1256 ( 23401 PWs)   bands (ev):

   -63.8904 -63.8170 -63.7484 -63.7149 -63.6555 -57.9251 -57.8438 -57.8365
   -57.8225 -57.8022 -57.7993 -57.7658 -29.6560 -29.6313 -29.5974 -29.5707
   -29.5028 -29.4862 -29.4447 -29.4410 -29.4086 -29.4050 -29.3848 -29.3204
   -29.2930 -29.2626 -29.2305 -25.9621 -25.9235 -25.8403 -25.7944 -25.7527
   -25.6930 -25.6684 -25.6515 -25.6307 -25.5972 -25.5836 -25.5716 -25.5544
   -25.5494 -25.5445 -25.5231 -25.5154 -25.4999 -25.4930 -25.4792 -25.4534
    13.8683  14.4784  15.2996  15.3480  15.4227  15.5660  15.6651  15.7230
    15.7367  15.9609  16.0034  16.1914  16.4089  16.5203  16.6266  16.8848
    17.1085  17.1951  17.2615  17.3949  17.4293  17.5687  17.6046  17.6378
    17.6867  17.7496  17.8335  17.8706  17.9183  18.0165  18.0339  18.1020
    18.1550  18.2148  18.2443  18.3166  18.4523  18.6936  18.7691  18.8102
    18.9314  18.9694  19.1590  19.2869  19.3888  19.4560  19.5080  19.6315
    19.7452  19.8066  19.9099  19.9906  20.0760  20.1488  20.2901  20.3475
    20.3943  20.5316  20.6137  20.7759  20.8672  20.9584  21.0097  21.2297
    21.2798  21.6770  21.8694  22.5192  22.5941  24.1323  25.2609  26.7581
    28.3118  28.7758  30.1413  31.6037  31.7283  32.0543

          k = 0.0500-0.0442-0.0419 ( 23391 PWs)   bands (ev):

   -63.8904 -63.8170 -63.7484 -63.7149 -63.6555 -57.9251 -57.8426 -57.8376
   -57.8229 -57.8028 -57.7984 -57.7658 -29.6559 -29.6313 -29.5968 -29.5705
   -29.5029 -29.4863 -29.4446 -29.4411 -29.4084 -29.4056 -29.3848 -29.3204
   -29.2930 -29.2628 -29.2305 -25.9689 -25.9149 -25.8321 -25.8166 -25.7446
   -25.6903 -25.6641 -25.6517 -25.6295 -25.6018 -25.5815 -25.5697 -25.5609
   -25.5518 -25.5438 -25.5245 -25.5154 -25.4979 -25.4885 -25.4792 -25.4536
    13.5357  15.2145  15.2366  15.3692  15.3822  15.5045  15.5131  15.5653
    15.7714  15.8025  15.9622  16.0797  16.3167  16.4568  16.7329  16.7791
    17.0764  17.1447  17.2446  17.5263  17.6056  17.6862  17.7414  17.7806
    17.8643  17.9006  17.9432  17.9695  18.0016  18.0520  18.1376  18.2024
    18.2430  18.2905  18.4075  18.4504  18.5091  18.5140  18.6323  18.7992
    18.9476  19.0484  19.0850  19.2127  19.2590  19.3110  19.4300  19.5498
    19.5818  19.6395  19.7443  19.9247  20.0841  20.1731  20.2167  20.4514
    20.4878  20.6209  20.6468  20.6993  20.8013  20.9016  21.0101  21.0913
    21.2400  21.3812  21.4185  22.3040  22.6968  24.1697  25.9634  27.8632
    28.5134  29.2222  30.0489  30.2378  30.9346  31.8571

          k = 0.1500 0.0441 0.0419 ( 23401 PWs)   bands (ev):

   -63.8872 -63.8137 -63.7453 -63.7117 -63.6528 -57.9189 -57.8358 -57.8316
   -57.8184 -57.7996 -57.7952 -57.7622 -29.6518 -29.6240 -29.5892 -29.5655
   -29.4987 -29.4833 -29.4823 -29.4541 -29.4183 -29.4040 -29.4017 -29.3559
   -29.3322 -29.2663 -29.2605 -25.9493 -25.9004 -25.8290 -25.8120 -25.7502
   -25.7057 -25.6938 -25.6641 -25.6478 -25.6244 -25.6106 -25.5892 -25.5753
   -25.5612 -25.5523 -25.5425 -25.5410 -25.5297 -25.5245 -25.4942 -25.4873
    14.0021  15.4693  15.5209  15.5965  15.7548  15.8404  15.8711  15.9583
    15.9680  16.0591  16.1719  16.3222  16.6138  16.6613  16.7313  16.8239
    16.8765  16.9115  17.0341  17.3501  17.3842  17.4147  17.5233  17.6030
    17.6503  17.6733  17.8967  17.9638  18.0203  18.0484  18.0975  18.1260
    18.1446  18.2162  18.3351  18.3561  18.4443  18.6096  18.6337  18.7102
    18.7374  18.8771  19.0314  19.1545  19.3484  19.3887  19.4735  19.5326
    19.5721  19.6784  19.7378  19.7974  19.9222  20.0769  20.1924  20.3778
    20.4229  20.4693  20.5074  20.6009  20.7556  20.9071  21.1391  21.1951
    21.2989  22.1085  22.6412  23.2269  23.8105  25.6589  26.3933  28.4631
    28.8519  29.4069  30.2466  30.4404  31.2445  31.2966

          k = 0.1499 0.0441 0.1256 ( 23392 PWs)   bands (ev):

   -63.8872 -63.8137 -63.7453 -63.7117 -63.6528 -57.9189 -57.8368 -57.8308
   -57.8180 -57.7991 -57.7960 -57.7621 -29.6519 -29.6240 -29.5898 -29.5656
   -29.4985 -29.4835 -29.4823 -29.4540 -29.4183 -29.4042 -29.4010 -29.3559
   -29.3322 -29.2663 -29.2605 -25.9423 -25.9067 -25.8427 -25.7872 -25.7593
   -25.7063 -25.6952 -25.6667 -25.6388 -25.6313 -25.6076 -25.5894 -25.5725
   -25.5621 -25.5534 -25.5460 -25.5438 -25.5300 -25.5207 -25.4921 -25.4903
    14.3169  14.8778  15.6453  15.6831  15.7128  15.8833  16.0045  16.0241
    16.1141  16.3039  16.3499  16.4139  16.4634  16.5570  16.6697  16.8144
    16.8690  16.9325  17.0876  17.0989  17.1673  17.3137  17.4044  17.4436
    17.4803  17.5317  17.6573  17.7728  17.8873  17.9671  18.1292  18.1821
    18.2691  18.2994  18.3403  18.4781  18.5717  18.7107  18.8764  18.9038
    18.9403  19.0251  19.1024  19.1243  19.1530  19.2367  19.2967  19.3705
    19.3952  19.6011  19.6496  19.8034  19.8984  19.9711  20.0267  20.1223
    20.2650  20.3887  20.7871  20.9026  20.9792  21.1782  21.2064  21.6273
    21.9186  22.5339  22.6422  23.4070  24.0180  24.3968  26.3214  27.4447
    28.3052  28.8232  30.7471  31.5745  31.7497  31.9387

          k = 0.1501 0.0439-0.1256 ( 23397 PWs)   bands (ev):

   -63.8872 -63.8137 -63.7453 -63.7117 -63.6528 -57.9189 -57.8370 -57.8303
   -57.8185 -57.7998 -57.7951 -57.7622 -29.6519 -29.6239 -29.5897 -29.5657
   -29.4986 -29.4835 -29.4822 -29.4540 -29.4183 -29.4041 -29.4010 -29.3559
   -29.3322 -29.2663 -29.2605 -25.9431 -25.9002 -25.8537 -25.7876 -25.7544
   -25.7052 -25.6903 -25.6673 -25.6406 -25.6297 -25.6090 -25.5921 -25.5758
   -25.5628 -25.5535 -25.5466 -25.5422 -25.5280 -25.5207 -25.4942 -25.4876
    14.3178  14.8764  15.6432  15.6854  15.7136  15.8871  16.0033  16.0226
    16.1088  16.3111  16.3471  16.4128  16.4687  16.5525  16.6637  16.8083
    16.8741  16.9557  17.0737  17.0913  17.1683  17.3307  17.3994  17.4198
    17.4698  17.5494  17.6718  17.7619  17.8878  17.9721  18.1365  18.1965
    18.2512  18.2909  18.3363  18.4685  18.5810  18.7085  18.8812  18.9323
    18.9636  19.0447  19.0861  19.1165  19.1569  19.2316  19.2786  19.3226
    19.3890  19.6237  19.6782  19.7983  19.8488  19.9284  20.0431  20.1616
    20.2835  20.4012  20.7968  20.8944  20.9595  21.2068  21.2552  21.5676
    21.8764  22.5746  22.6319  23.4173  24.0134  24.3940  26.3315  27.4414
    28.2763  28.8382  30.7470  31.5789  31.7449  31.9647

          k = 0.1500 0.0440-0.0419 ( 23397 PWs)   bands (ev):

   -63.8872 -63.8137 -63.7453 -63.7117 -63.6528 -57.9189 -57.8361 -57.8309
   -57.8189 -57.8002 -57.7945 -57.7622 -29.6518 -29.6239 -29.5892 -29.5655
   -29.4988 -29.4832 -29.4823 -29.4541 -29.4184 -29.4039 -29.4017 -29.3559
   -29.3323 -29.2663 -29.2606 -25.9496 -25.8941 -25.8461 -25.8045 -25.7477
   -25.7053 -25.6861 -25.6660 -25.6509 -25.6192 -25.6130 -25.5959 -25.5753
   -25.5621 -25.5505 -25.5463 -25.5398 -25.5269 -25.5241 -25.4954 -25.4856
    14.0024  15.4701  15.5207  15.5941  15.7571  15.8407  15.8709  15.9495
    15.9733  16.0588  16.1765  16.3224  16.6112  16.6621  16.7235  16.8329
    16.8706  16.9163  17.0328  17.3367  17.3820  17.4366  17.5345  17.5879
    17.6390  17.6795  17.9133  17.9565  17.9951  18.0537  18.0959  18.1285
    18.1658  18.2274  18.2971  18.3829  18.4175  18.6090  18.6723  18.6948
    18.7435  18.8794  19.0480  19.1352  19.3521  19.3983  19.4645  19.5163
    19.5578  19.6918  19.7195  19.7685  19.9843  20.0838  20.1719  20.3197
    20.4089  20.4817  20.5505  20.6188  20.7635  20.9710  21.1426  21.1810
    21.2420  22.0834  22.6575  23.2339  23.8104  25.6626  26.3899  28.4610
    28.8868  29.3305  30.2331  30.4854  31.2620  31.3015

          k = 0.1500 0.1324 0.0419 ( 23390 PWs)   bands (ev):

   -63.8872 -63.8137 -63.7453 -63.7117 -63.6528 -57.9188 -57.8372 -57.8316
   -57.8161 -57.7999 -57.7960 -57.7621 -29.6518 -29.6239 -29.5892 -29.5654
   -29.4989 -29.4833 -29.4823 -29.4539 -29.4182 -29.4043 -29.4017 -29.3558
   -29.3321 -29.2663 -29.2606 -25.9438 -25.9097 -25.8370 -25.7957 -25.7498
   -25.7083 -25.6953 -25.6657 -25.6442 -25.6269 -25.6145 -25.5842 -25.5775
   -25.5591 -25.5539 -25.5454 -25.5402 -25.5293 -25.5223 -25.4917 -25.4899
    14.3268  14.9192  15.6130  15.6333  15.7480  15.7747  15.8469  15.8790
    15.9935  16.1181  16.2983  16.4052  16.4616  16.4917  16.7656  16.7980
    16.9908  17.0743  17.1146  17.2476  17.3227  17.4914  17.5166  17.6492
    17.6783  17.7846  17.8811  17.9315  17.9601  18.0115  18.0847  18.1511
    18.1845  18.2472  18.3448  18.3926  18.4053  18.4685  18.5626  18.6179
    18.6856  18.7534  18.9621  19.0093  19.2603  19.2947  19.3230  19.4475
    19.6671  19.7199  19.7589  19.8663  20.0220  20.1548  20.3403  20.5069
    20.5631  20.6228  20.7039  20.7740  20.8263  20.9346  21.0323  21.1644
    21.3181  21.6955  22.4912  24.1568  24.7642  25.2417  26.3411  26.6902
    28.4475  28.5561  29.2474  30.0946  31.7993  32.0659

          k = 0.1499 0.1324 0.1256 ( 23394 PWs)   bands (ev):

   -63.8872 -63.8137 -63.7453 -63.7117 -63.6528 -57.9188 -57.8383 -57.8301
   -57.8164 -57.8009 -57.7951 -57.7622 -29.6518 -29.6238 -29.5898 -29.5657
   -29.4989 -29.4835 -29.4823 -29.4538 -29.4182 -29.4042 -29.4011 -29.3558
   -29.3321 -29.2663 -29.2605 -25.9369 -25.9064 -25.8626 -25.7795 -25.7475
   -25.7084 -25.6883 -25.6672 -25.6390 -25.6301 -25.6158 -25.5918 -25.5815
   -25.5613 -25.5537 -25.5461 -25.5428 -25.5273 -25.5173 -25.4941 -25.4872
    14.6312  15.1393  15.2074  15.6028  15.7421  15.8561  15.9034  15.9780
    16.1257  16.1628  16.2016  16.2245  16.3729  16.4651  16.5185  16.7650
    17.0662  17.0837  17.1813  17.2448  17.2671  17.2776  17.3423  17.4384
    17.5914  17.8972  17.9400  17.9588  18.0645  18.1154  18.1692  18.2343
    18.2692  18.2984  18.3453  18.4292  18.4689  18.5088  18.5322  18.6282
    18.6668  18.7324  18.7882  18.8724  19.0181  19.0991  19.1974  19.2839
    19.5074  19.6837  19.9634  20.0478  20.1219  20.2134  20.3108  20.3658
    20.4301  20.6013  20.7287  20.8104  20.8601  20.9127  21.0239  21.1243
    22.6330  22.8733  23.1542  23.9534  24.4069  24.4802  24.7848  25.7274
    28.5602  29.7505  29.9825  31.3324  31.5090  32.2833

          k = 0.1501 0.1322-0.1256 ( 23391 PWs)   bands (ev):

   -63.8872 -63.8137 -63.7453 -63.7117 -63.6528 -57.9188 -57.8384 -57.8297
   -57.8168 -57.8013 -57.7945 -57.7622 -29.6518 -29.6238 -29.5897 -29.5658
   -29.4990 -29.4834 -29.4822 -29.4538 -29.4183 -29.4040 -29.4011 -29.3558
   -29.3321 -29.2663 -29.2606 -25.9385 -25.8933 -25.8777 -25.7818 -25.7414
   -25.7106 -25.6778 -25.6685 -25.6440 -25.6259 -25.6185 -25.5962 -25.5838
   -25.5612 -25.5529 -25.5462 -25.5424 -25.5255 -25.5178 -25.4951 -25.4854
    14.6312  15.1411  15.2071  15.6014  15.7418  15.8570  15.9047  15.9780
    16.1268  16.1576  16.2052  16.2210  16.3770  16.4594  16.5169  16.7708
    17.0738  17.1016  17.1682  17.2325  17.2491  17.2705  17.3642  17.4450
    17.5717  17.8884  17.9450  17.9579  18.0933  18.1240  18.1728  18.2283
    18.2644  18.2848  18.3500  18.4229  18.4716  18.5274  18.5534  18.6210
    18.6608  18.6985  18.8041  18.8993  19.0008  19.0617  19.2109  19.2779
    19.5324  19.7170  19.9157  19.9975  20.0933  20.2026  20.3144  20.4028
    20.4900  20.6372  20.7597  20.8138  20.8462  20.8893  21.0153  21.0901
    22.6372  22.8835  23.1334  23.9623  24.4041  24.4792  24.8018  25.7121
    28.5462  29.7546  30.0091  31.3017  31.5126  32.3077

          k = 0.1500 0.1323-0.0419 ( 23400 PWs)   bands (ev):

   -63.8872 -63.8137 -63.7453 -63.7117 -63.6528 -57.9189 -57.8374 -57.8311
   -57.8164 -57.8006 -57.7952 -57.7622 -29.6518 -29.6239 -29.5892 -29.5655
   -29.4990 -29.4832 -29.4823 -29.4540 -29.4182 -29.4041 -29.4017 -29.3558
   -29.3321 -29.2663 -29.2606 -25.9446 -25.9040 -25.8482 -25.7946 -25.7441
   -25.7106 -25.6886 -25.6645 -25.6479 -25.6240 -25.6164 -25.5882 -25.5801
   -25.5606 -25.5511 -25.5455 -25.5410 -25.5281 -25.5214 -25.4941 -25.4869
    14.3268  14.9201  15.6151  15.6309  15.7502  15.7704  15.8540  15.8735
    15.9946  16.1139  16.3047  16.3996  16.4698  16.4909  16.7640  16.7805
    17.0119  17.0786  17.1142  17.2357  17.3165  17.4856  17.5267  17.6496
    17.6842  17.7591  17.8724  17.9484  17.9727  18.0373  18.0809  18.1317
    18.1804  18.2265  18.3592  18.3911  18.4361  18.4527  18.5917  18.6142
    18.6757  18.7475  18.9432  19.0088  19.2776  19.3050  19.3265  19.4291
    19.6258  19.7093  19.7878  19.8629  20.0595  20.1467  20.2909  20.5019
    20.5934  20.6208  20.7150  20.7855  20.8468  20.9654  21.0206  21.1277
    21.2988  21.7143  22.4752  24.1673  24.7684  25.2395  26.3413  26.6786
    28.4547  28.5605  29.2068  30.1393  31.8116  32.0630

          k = 0.1500-0.1325 0.0419 ( 23384 PWs)   bands (ev):

   -63.8872 -63.8137 -63.7453 -63.7117 -63.6528 -57.9189 -57.8374 -57.8311
   -57.8164 -57.8006 -57.7952 -57.7622 -29.6518 -29.6239 -29.5892 -29.5655
   -29.4990 -29.4832 -29.4823 -29.4540 -29.4182 -29.4041 -29.4017 -29.3558
   -29.3321 -29.2663 -29.2606 -25.9445 -25.9043 -25.8478 -25.7947 -25.7443
   -25.7104 -25.6887 -25.6646 -25.6477 -25.6238 -25.6167 -25.5880 -25.5802
   -25.5606 -25.5512 -25.5456 -25.5408 -25.5280 -25.5215 -25.4941 -25.4870
    14.3281  14.9176  15.6160  15.6318  15.7510  15.7705  15.8515  15.8714
    15.9949  16.1166  16.3050  16.4004  16.4675  16.4902  16.7629  16.7792
    17.0142  17.0825  17.1186  17.2358  17.3149  17.4863  17.5280  17.6477
    17.6840  17.7583  17.8681  17.9482  17.9700  18.0381  18.0813  18.1271
    18.1872  18.2285  18.3564  18.3878  18.4352  18.4546  18.5922  18.6118
    18.6749  18.7526  18.9421  19.0106  19.2787  19.3059  19.3267  19.4250
    19.6260  19.7100  19.7900  19.8620  20.0631  20.1481  20.2912  20.4998
    20.5936  20.6208  20.7148  20.7860  20.8468  20.9643  21.0224  21.1258
    21.2968  21.7094  22.4761  24.1608  24.7809  25.2433  26.3420  26.6766
    28.4559  28.5559  29.2032  30.1294  31.8199  32.0587

          k = 0.1499-0.1325 0.1256 ( 23392 PWs)   bands (ev):

   -63.8872 -63.8137 -63.7453 -63.7117 -63.6528 -57.9188 -57.8384 -57.8297
   -57.8168 -57.8013 -57.7945 -57.7622 -29.6518 -29.6238 -29.5897 -29.5658
   -29.4990 -29.4834 -29.4822 -29.4538 -29.4183 -29.4040 -29.4011 -29.3558
   -29.3321 -29.2663 -29.2606 -25.9384 -25.8934 -25.8777 -25.7820 -25.7411
   -25.7107 -25.6778 -25.6685 -25.6441 -25.6259 -25.6185 -25.5961 -25.5840
   -25.5611 -25.5530 -25.5463 -25.5423 -25.5255 -25.5178 -25.4952 -25.4854
    14.6316  15.1435  15.2042  15.6006  15.7437  15.8593  15.9043  15.9750
    16.1276  16.1551  16.2038  16.2209  16.3777  16.4604  16.5171  16.7695
    17.0729  17.1038  17.1680  17.2314  17.2506  17.2749  17.3637  17.4444
    17.5739  17.8856  17.9442  17.9583  18.0957  18.1188  18.1750  18.2292
    18.2665  18.2828  18.3494  18.4182  18.4696  18.5257  18.5556  18.6204
    18.6607  18.6978  18.8107  18.9028  19.0030  19.0633  19.2090  19.2747
    19.5312  19.7182  19.9158  19.9975  20.0924  20.2023  20.3143  20.4026
    20.4892  20.6369  20.7614  20.8143  20.8474  20.8888  21.0136  21.0883
    22.6342  22.8808  23.1342  23.9746  24.4080  24.4817  24.7915  25.7111
    28.5461  29.7509  30.0128  31.2974  31.5119  32.2965

          k = 0.1501-0.1327-0.1256 ( 23398 PWs)   bands (ev):

   -63.8872 -63.8137 -63.7453 -63.7117 -63.6528 -57.9188 -57.8383 -57.8301
   -57.8164 -57.8009 -57.7951 -57.7622 -29.6518 -29.6238 -29.5898 -29.5657
   -29.4989 -29.4834 -29.4823 -29.4538 -29.4182 -29.4042 -29.4011 -29.3558
   -29.3321 -29.2663 -29.2605 -25.9368 -25.9061 -25.8633 -25.7794 -25.7471
   -25.7085 -25.6882 -25.6669 -25.6390 -25.6306 -25.6155 -25.5920 -25.5814
   -25.5612 -25.5536 -25.5460 -25.5429 -25.5276 -25.5172 -25.4941 -25.4871
    14.6338  15.1387  15.2060  15.6002  15.7441  15.8583  15.9051  15.9756
    16.1251  16.1602  16.2004  16.2229  16.3725  16.4660  16.5202  16.7635
    17.0631  17.0823  17.1814  17.2446  17.2676  17.2772  17.3458  17.4448
    17.5951  17.8986  17.9378  17.9598  18.0660  18.1133  18.1682  18.2301
    18.2665  18.2997  18.3412  18.4283  18.4675  18.5115  18.5314  18.6291
    18.6671  18.7328  18.7900  18.8769  19.0206  19.1012  19.1976  19.2849
    19.5045  19.6832  19.9595  20.0471  20.1217  20.2133  20.3102  20.3653
    20.4296  20.5994  20.7312  20.8115  20.8592  20.9139  21.0228  21.1207
    22.6337  22.8762  23.1643  23.9549  24.4062  24.4773  24.7838  25.7155
    28.5645  29.7501  29.9820  31.3416  31.5020  32.2883

          k = 0.1500-0.1326-0.0419 ( 23390 PWs)   bands (ev):

   -63.8872 -63.8137 -63.7453 -63.7117 -63.6528 -57.9188 -57.8372 -57.8316
   -57.8161 -57.7999 -57.7960 -57.7621 -29.6518 -29.6239 -29.5892 -29.5654
   -29.4989 -29.4833 -29.4823 -29.4539 -29.4182 -29.4043 -29.4017 -29.3558
   -29.3321 -29.2663 -29.2606 -25.9437 -25.9098 -25.8374 -25.7952 -25.7499
   -25.7083 -25.6954 -25.6656 -25.6441 -25.6273 -25.6144 -25.5845 -25.5771
   -25.5592 -25.5538 -25.5454 -25.5402 -25.5294 -25.5223 -25.4917 -25.4899
    14.3288  14.9173  15.6116  15.6341  15.7492  15.7739  15.8457  15.8775
    15.9937  16.1204  16.2984  16.4069  16.4595  16.4899  16.7639  16.7963
    16.9935  17.0736  17.1162  17.2495  17.3207  17.4948  17.5177  17.6527
    17.6785  17.7848  17.8809  17.9310  17.9612  18.0099  18.0815  18.1473
    18.1875  18.2441  18.3429  18.3927  18.4035  18.4693  18.5639  18.6172
    18.6875  18.7546  18.9603  19.0104  19.2607  19.2980  19.3255  19.4502
    19.6651  19.7195  19.7573  19.8640  20.0224  20.1556  20.3414  20.5073
    20.5633  20.6197  20.7048  20.7740  20.8280  20.9329  21.0323  21.1628
    21.3140  21.6958  22.4968  24.1545  24.7665  25.2504  26.3363  26.6792
    28.4431  28.5558  29.2547  30.0984  31.7977  32.0574

          k = 0.1500-0.0442 0.0419 ( 23403 PWs)   bands (ev):

   -63.8872 -63.8137 -63.7453 -63.7117 -63.6528 -57.9189 -57.8361 -57.8309
   -57.8189 -57.8002 -57.7945 -57.7622 -29.6518 -29.6239 -29.5892 -29.5655
   -29.4988 -29.4832 -29.4823 -29.4541 -29.4184 -29.4039 -29.4017 -29.3559
   -29.3323 -29.2663 -29.2606 -25.9496 -25.8942 -25.8462 -25.8046 -25.7475
   -25.7053 -25.6861 -25.6659 -25.6510 -25.6193 -25.6129 -25.5959 -25.5754
   -25.5620 -25.5506 -25.5464 -25.5398 -25.5270 -25.5239 -25.4954 -25.4856
    14.0026  15.4701  15.5223  15.5924  15.7569  15.8410  15.8728  15.9482
    15.9721  16.0560  16.1780  16.3235  16.6094  16.6627  16.7234  16.8358
    16.8703  16.9141  17.0323  17.3384  17.3892  17.4388  17.5334  17.5856
    17.6368  17.6762  17.9116  17.9541  17.9939  18.0548  18.0983  18.1298
    18.1664  18.2277  18.2972  18.3776  18.4248  18.6076  18.6719  18.6920
    18.7405  18.8798  19.0520  19.1395  19.3487  19.3979  19.4637  19.5179
    19.5568  19.6919  19.7212  19.7701  19.9844  20.0831  20.1703  20.3206
    20.4091  20.4817  20.5505  20.6174  20.7654  20.9691  21.1431  21.1806
    21.2414  22.0813  22.6480  23.2460  23.8132  25.6579  26.3941  28.4565
    28.8872  29.3327  30.2269  30.4915  31.2543  31.2995

          k = 0.1499-0.0442 0.1256 ( 23390 PWs)   bands (ev):

   -63.8872 -63.8137 -63.7453 -63.7117 -63.6528 -57.9189 -57.8370 -57.8302
   -57.8185 -57.7999 -57.7951 -57.7622 -29.6519 -29.6239 -29.5897 -29.5657
   -29.4986 -29.4835 -29.4823 -29.4540 -29.4183 -29.4041 -29.4010 -29.3559
   -29.3322 -29.2663 -29.2605 -25.9431 -25.8999 -25.8543 -25.7878 -25.7538
   -25.7053 -25.6903 -25.6672 -25.6410 -25.6294 -25.6088 -25.5921 -25.5761
   -25.5627 -25.5535 -25.5465 -25.5423 -25.5283 -25.5205 -25.4942 -25.4875
    14.3170  14.8787  15.6437  15.6864  15.7129  15.8843  16.0044  16.0240
    16.1069  16.3092  16.3445  16.4124  16.4705  16.5494  16.6649  16.8100
    16.8744  16.9574  17.0762  17.0909  17.1671  17.3279  17.4022  17.4227
    17.4698  17.5509  17.6703  17.7658  17.8817  17.9708  18.1328  18.1955
    18.2565  18.2920  18.3342  18.4672  18.5818  18.7166  18.8797  18.9309
    18.9621  19.0432  19.0855  19.1169  19.1582  19.2298  19.2794  19.3228
    19.3917  19.6219  19.6781  19.7990  19.8505  19.9292  20.0395  20.1610
    20.2821  20.4021  20.7957  20.8932  20.9578  21.2104  21.2519  21.5664
    21.8772  22.5815  22.6336  23.4121  24.0159  24.3964  26.3237  27.4429
    28.2767  28.8439  30.7417  31.5828  31.7377  31.9646

          k = 0.1501-0.0444-0.1256 ( 23393 PWs)   bands (ev):

   -63.8872 -63.8137 -63.7453 -63.7117 -63.6528 -57.9189 -57.8368 -57.8308
   -57.8180 -57.7991 -57.7960 -57.7621 -29.6519 -29.6240 -29.5898 -29.5656
   -29.4985 -29.4835 -29.4823 -29.4540 -29.4183 -29.4042 -29.4010 -29.3559
   -29.3322 -29.2663 -29.2605 -25.9421 -25.9068 -25.8430 -25.7867 -25.7596
   -25.7063 -25.6952 -25.6667 -25.6384 -25.6319 -25.6076 -25.5896 -25.5722
   -25.5621 -25.5533 -25.5460 -25.5439 -25.5300 -25.5207 -25.4921 -25.4903
    14.3187  14.8761  15.6457  15.6842  15.7141  15.8820  16.0035  16.0227
    16.1112  16.3033  16.3488  16.4150  16.4651  16.5546  16.6689  16.8165
    16.8700  16.9310  17.0858  17.0961  17.1687  17.3193  17.4053  17.4474
    17.4820  17.5352  17.6585  17.7737  17.8854  17.9612  18.1268  18.1803
    18.2664  18.2985  18.3379  18.4817  18.5728  18.7125  18.8781  18.9040
    18.9390  19.0247  19.1049  19.1263  19.1526  19.2379  19.2968  19.3719
    19.3957  19.6026  19.6486  19.7990  19.8985  19.9693  20.0280  20.1219
    20.2657  20.3879  20.7839  20.9023  20.9793  21.1809  21.2032  21.6216
    21.9255  22.5355  22.6431  23.4074  24.0223  24.3940  26.3226  27.4357
    28.3034  28.8223  30.7546  31.5720  31.7488  31.9416

          k = 0.1500-0.0443-0.0419 ( 23404 PWs)   bands (ev):

   -63.8872 -63.8137 -63.7453 -63.7117 -63.6528 -57.9189 -57.8358 -57.8316
   -57.8184 -57.7996 -57.7952 -57.7622 -29.6518 -29.6240 -29.5892 -29.5655
   -29.4987 -29.4833 -29.4824 -29.4541 -29.4183 -29.4040 -29.4017 -29.3559
   -29.3322 -29.2663 -29.2605 -25.9492 -25.9007 -25.8290 -25.8117 -25.7505
   -25.7057 -25.6938 -25.6641 -25.6476 -25.6247 -25.6106 -25.5893 -25.5749
   -25.5612 -25.5523 -25.5425 -25.5410 -25.5295 -25.5247 -25.4942 -25.4873
    14.0032  15.4699  15.5187  15.5951  15.7542  15.8405  15.8722  15.9576
    15.9669  16.0585  16.1743  16.3204  16.6143  16.6618  16.7339  16.8219
    16.8762  16.9097  17.0327  17.3564  17.3859  17.4179  17.5248  17.6012
    17.6497  17.6744  17.8956  17.9644  18.0188  18.0466  18.0964  18.1246
    18.1437  18.2176  18.3305  18.3552  18.4444  18.6107  18.6280  18.7100
    18.7376  18.8842  19.0331  19.1566  19.3505  19.3899  19.4728  19.5336
    19.5722  19.6770  19.7385  19.7975  19.9208  20.0781  20.1908  20.3774
    20.4216  20.4685  20.5081  20.6015  20.7546  20.9101  21.1354  21.1947
    21.3015  22.0999  22.6396  23.2294  23.8218  25.6579  26.3892  28.4654
    28.8458  29.3996  30.2461  30.4386  31.2478  31.2940

          k = 0.2500 0.0440 0.0419 ( 23374 PWs)   bands (ev):

   -63.8820 -63.8083 -63.7403 -63.7063 -63.6483 -57.9088 -57.8243 -57.8216
   -57.8112 -57.7950 -57.7904 -57.7562 -29.6453 -29.6135 -29.5784 -29.5572
   -29.5480 -29.5041 -29.4837 -29.4761 -29.4323 -29.4311 -29.4027 -29.3948
   -29.3856 -29.3111 -29.2693 -25.9222 -25.8898 -25.8491 -25.8071 -25.7761
   -25.7502 -25.7379 -25.7030 -25.6691 -25.6615 -25.6430 -25.6305 -25.6141
   -25.6032 -25.5820 -25.5674 -25.5520 -25.5441 -25.5342 -25.5239 -25.5100
    14.8182  15.5870  15.7553  15.8277  15.8644  15.8711  16.1459  16.1979
    16.2550  16.3174  16.3638  16.4075  16.4669  16.5250  16.6155  16.6416
    16.9475  17.0979  17.1690  17.1970  17.2635  17.3389  17.4525  17.4919
    17.5246  17.5787  17.7678  17.8398  17.9072  17.9265  18.0375  18.0818
    18.2236  18.3342  18.3780  18.5963  18.6504  18.7762  18.8228  18.8389
    18.8560  18.8914  19.0377  19.2181  19.3685  19.5149  19.5555  19.6596
    19.7264  19.7749  19.8837  19.9724  20.0439  20.1132  20.2541  20.3457
    20.4824  20.5410  20.7435  20.7968  20.9030  21.0898  21.1554  21.1994
    21.9726  23.0883  23.9200  24.2516  25.1071  26.9198  27.5231  28.9489
    29.0111  29.5168  29.8532  30.6302  30.9091  31.6079

          k = 0.2499 0.0441 0.1256 ( 23375 PWs)   bands (ev):

   -63.8820 -63.8083 -63.7403 -63.7063 -63.6483 -57.9088 -57.8248 -57.8213
   -57.8108 -57.7947 -57.7908 -57.7562 -29.6453 -29.6135 -29.5789 -29.5573
   -29.5481 -29.5042 -29.4837 -29.4761 -29.4323 -29.4311 -29.4026 -29.3943
   -29.3855 -29.3111 -29.2692 -25.9161 -25.8863 -25.8624 -25.8058 -25.7808
   -25.7515 -25.7230 -25.7013 -25.6688 -25.6598 -25.6448 -25.6262 -25.6202
   -25.6083 -25.5864 -25.5648 -25.5531 -25.5450 -25.5347 -25.5187 -25.5123
    15.0782  15.4675  15.8977  15.9073  15.9939  16.0696  16.1389  16.1736
    16.1950  16.2063  16.2719  16.2864  16.4480  16.5802  16.6747  16.6986
    16.9536  16.9835  17.0201  17.0522  17.1923  17.2183  17.4105  17.4524
    17.5179  17.5791  17.6158  17.7453  17.9103  18.0510  18.1502  18.2760
    18.3250  18.4020  18.4669  18.5726  18.6032  18.6791  18.7220  18.7666
    18.8068  18.8754  18.9500  19.0094  19.2301  19.2887  19.3797  19.4936
    19.6020  19.6826  19.7869  20.0244  20.0467  20.0982  20.1587  20.2724
    20.6411  20.7058  20.8012  20.8588  21.0907  21.1796  21.5963  22.3547
    22.6736  22.8227  23.4494  24.7899  25.0243  25.7603  27.9196  28.3188
    28.6820  29.0474  29.3707  29.9323  31.7373  31.9095

          k = 0.2501 0.0439-0.1256 ( 23379 PWs)   bands (ev):

   -63.8820 -63.8083 -63.7403 -63.7063 -63.6483 -57.9088 -57.8252 -57.8205
   -57.8112 -57.7951 -57.7904 -57.7562 -29.6453 -29.6135 -29.5789 -29.5574
   -29.5480 -29.5042 -29.4837 -29.4761 -29.4322 -29.4312 -29.4026 -29.3943
   -29.3856 -29.3111 -29.2692 -25.9161 -25.8849 -25.8647 -25.8057 -25.7796
   -25.7507 -25.7236 -25.6977 -25.6694 -25.6617 -25.6484 -25.6316 -25.6179
   -25.6068 -25.5825 -25.5629 -25.5518 -25.5456 -25.5353 -25.5234 -25.5100
    15.0798  15.4650  15.8972  15.9145  15.9898  16.0686  16.1412  16.1739
    16.1921  16.2045  16.2665  16.2919  16.4481  16.5793  16.6778  16.6929
    16.9580  16.9843  17.0200  17.0499  17.2019  17.2171  17.4234  17.4512
    17.4973  17.5813  17.6110  17.7527  17.9043  18.0430  18.1832  18.2446
    18.3125  18.4193  18.4791  18.5622  18.6187  18.6812  18.7322  18.7527
    18.7963  18.8732  18.9697  19.0017  19.2170  19.2978  19.3685  19.4640
    19.6546  19.7016  19.8042  19.9728  20.0084  20.0798  20.1413  20.3168
    20.6700  20.7105  20.7981  20.8635  21.0844  21.1638  21.6570  22.3127
    22.6520  22.8206  23.4646  24.7877  25.0366  25.7586  27.9297  28.3240
    28.6439  29.0539  29.3655  29.9401  31.7382  31.9449

          k = 0.2500 0.0439-0.0419 ( 23374 PWs)   bands (ev):

   -63.8820 -63.8083 -63.7403 -63.7063 -63.6483 -57.9088 -57.8248 -57.8206
   -57.8117 -57.7953 -57.7900 -57.7563 -29.6453 -29.6135 -29.5784 -29.5573
   -29.5479 -29.5041 -29.4837 -29.4762 -29.4322 -29.4312 -29.4027 -29.3948
   -29.3856 -29.3111 -29.2693 -25.9222 -25.8892 -25.8511 -25.8063 -25.7750
   -25.7514 -25.7356 -25.7017 -25.6697 -25.6632 -25.6428 -25.6370 -25.6124
   -25.6033 -25.5777 -25.5654 -25.5498 -25.5452 -25.5347 -25.5280 -25.5088
    14.8187  15.5879  15.7517  15.8281  15.8627  15.8758  16.1453  16.1976
    16.2552  16.3129  16.3633  16.4061  16.4697  16.5269  16.6173  16.6406
    16.9463  17.1015  17.1570  17.2073  17.2619  17.3416  17.4507  17.4929
    17.5215  17.5877  17.7713  17.8435  17.8950  17.9267  18.0227  18.0879
    18.2253  18.3434  18.3777  18.5788  18.6450  18.7768  18.8204  18.8348
    18.8833  18.9015  19.0433  19.2167  19.4020  19.4855  19.5142  19.6889
    19.7262  19.7690  19.8759  19.9385  20.0585  20.1251  20.2232  20.3593
    20.5002  20.5398  20.7289  20.7883  20.9282  21.0979  21.1484  21.2468
    21.9395  23.0636  23.9380  24.2565  25.1080  26.9163  27.5272  28.9470
    29.0186  29.5368  29.7844  30.6344  30.9182  31.6673

          k = 0.2500 0.1323 0.0419 ( 23371 PWs)   bands (ev):

   -63.8820 -63.8083 -63.7403 -63.7063 -63.6483 -57.9088 -57.8252 -57.8215
   -57.8097 -57.7953 -57.7907 -57.7562 -29.6453 -29.6135 -29.5784 -29.5572
   -29.5481 -29.5041 -29.4836 -29.4761 -29.4324 -29.4312 -29.4028 -29.3947
   -29.3852 -29.3113 -29.2693 -25.9228 -25.8931 -25.8503 -25.7936 -25.7728
   -25.7481 -25.7466 -25.7089 -25.6730 -25.6633 -25.6352 -25.6272 -25.6222
   -25.5979 -25.5858 -25.5668 -25.5533 -25.5456 -25.5336 -25.5184 -25.5117
    14.9818  15.2683  15.9129  15.9465  15.9746  16.0039  16.1432  16.1631
    16.2154  16.3695  16.4094  16.5088  16.5516  16.5770  16.6167  16.7196
    16.8928  16.9284  16.9690  16.9999  17.0333  17.0919  17.4877  17.5300
    17.5736  17.6586  17.7725  17.7975  18.0228  18.0383  18.1087  18.1358
    18.1706  18.2125  18.2323  18.2597  18.3468  18.4460  18.9537  18.9924
    19.0443  19.1224  19.1702  19.2987  19.4153  19.4474  19.4756  19.5301
    19.6288  19.7049  19.7509  19.9181  19.9941  20.2000  20.3286  20.4995
    20.5793  20.6945  20.8155  20.8513  20.9412  21.0354  21.1729  21.7569
    22.0508  22.8134  23.6185  25.5997  25.7112  26.4660  27.3030  27.5141
    28.7377  28.7703  29.5631  29.6973  30.5700  30.7212

          k = 0.2499 0.1324 0.1256 ( 23372 PWs)   bands (ev):

   -63.8820 -63.8083 -63.7403 -63.7063 -63.6483 -57.9088 -57.8262 -57.8202
   -57.8101 -57.7957 -57.7903 -57.7562 -29.6453 -29.6135 -29.5789 -29.5575
   -29.5481 -29.5042 -29.4836 -29.4760 -29.4324 -29.4312 -29.4026 -29.3942
   -29.3853 -29.3112 -29.2693 -25.9169 -25.8888 -25.8643 -25.7964 -25.7746
   -25.7480 -25.7326 -25.7007 -25.6711 -25.6672 -25.6437 -25.6336 -25.6219
   -25.6014 -25.5806 -25.5607 -25.5545 -25.5461 -25.5347 -25.5229 -25.5094
    15.2670  15.5797  15.7099  15.8801  15.9545  15.9975  16.0322  16.1015
    16.2119  16.3075  16.4805  16.5417  16.5925  16.6756  16.7992  16.8640
    16.8798  16.9092  16.9442  16.9682  16.9824  17.0190  17.1866  17.2978
    17.3853  17.4740  17.6847  17.8529  17.9052  18.0595  18.0893  18.1741
    18.2357  18.3081  18.3492  18.3599  18.4360  18.5070  18.8633  18.9153
    18.9607  19.0140  19.1154  19.1779  19.2498  19.3329  19.4584  19.5235
    19.5712  19.6027  19.7071  19.7253  20.1215  20.3710  20.4314  20.6290
    20.6936  20.7026  20.8692  20.9536  21.0196  21.0864  21.1063  21.4470
    23.2714  24.1007  24.1760  24.8850  25.2371  25.7730  26.0404  26.7267
    28.6601  29.9372  29.9972  30.2364  30.5096  30.9177

          k = 0.2501 0.1322-0.1256 ( 23370 PWs)   bands (ev):

   -63.8820 -63.8083 -63.7403 -63.7063 -63.6483 -57.9088 -57.8265 -57.8196
   -57.8105 -57.7960 -57.7900 -57.7563 -29.6453 -29.6135 -29.5789 -29.5576
   -29.5480 -29.5042 -29.4836 -29.4761 -29.4323 -29.4312 -29.4027 -29.3942
   -29.3854 -29.3112 -29.2693 -25.9170 -25.8872 -25.8666 -25.7969 -25.7727
   -25.7496 -25.7289 -25.7003 -25.6716 -25.6684 -25.6465 -25.6380 -25.6198
   -25.6006 -25.5771 -25.5587 -25.5540 -25.5455 -25.5357 -25.5269 -25.5082
    15.2676  15.5820  15.7077  15.8836  15.9510  15.9964  16.0363  16.0966
    16.2114  16.3074  16.4813  16.5352  16.6000  16.6706  16.7972  16.8620
    16.8760  16.9144  16.9518  16.9717  16.9820  17.0169  17.2011  17.2895
    17.3610  17.4933  17.6822  17.8595  17.9035  18.0554  18.1064  18.1489
    18.2170  18.3121  18.3551  18.3798  18.4357  18.5133  18.8736  18.9130
    18.9462  19.0196  19.0984  19.1605  19.2539  19.3403  19.4849  19.5382
    19.5705  19.5983  19.6880  19.7253  20.1558  20.2990  20.3693  20.6267
    20.7062  20.7930  20.9003  20.9527  21.0264  21.0830  21.1240  21.3902
    23.2766  24.1159  24.1532  24.8771  25.2529  25.7723  26.0527  26.7069
    28.6521  29.9284  30.0061  30.2492  30.5296  30.8970

          k = 0.2500 0.1322-0.0419 ( 23367 PWs)   bands (ev):

   -63.8820 -63.8083 -63.7403 -63.7063 -63.6483 -57.9088 -57.8256 -57.8208
   -57.8101 -57.7956 -57.7903 -57.7562 -29.6453 -29.6135 -29.5784 -29.5573
   -29.5480 -29.5041 -29.4836 -29.4762 -29.4324 -29.4312 -29.4028 -29.3947
   -29.3853 -29.3112 -29.2693 -25.9228 -25.8924 -25.8521 -25.7930 -25.7724
   -25.7536 -25.7380 -25.7101 -25.6724 -25.6644 -25.6381 -25.6338 -25.6183
   -25.5986 -25.5792 -25.5668 -25.5534 -25.5445 -25.5339 -25.5233 -25.5094
    14.9820  15.2691  15.9120  15.9509  15.9759  15.9985  16.1404  16.1611
    16.2217  16.3666  16.4078  16.5088  16.5533  16.5710  16.6213  16.7235
    16.8850  16.9293  16.9735  16.9934  17.0381  17.0947  17.4878  17.5234
    17.5728  17.6740  17.7607  17.8167  18.0052  18.0214  18.1099  18.1411
    18.1839  18.2089  18.2383  18.2509  18.3610  18.4389  18.9525  19.0034
    19.0373  19.1107  19.1708  19.2970  19.4288  19.4542  19.4950  19.5350
    19.6183  19.6824  19.7600  19.8894  19.9815  20.2200  20.3030  20.4996
    20.6200  20.6754  20.7928  20.8622  20.9573  21.0308  21.2288  21.7154
    22.0392  22.8316  23.6081  25.5998  25.7197  26.4649  27.3061  27.5052
    28.7322  28.7671  29.5607  29.6841  30.5673  30.7568

          k = 0.2500-0.1326 0.0419 ( 23374 PWs)   bands (ev):

   -63.8820 -63.8083 -63.7403 -63.7063 -63.6483 -57.9088 -57.8256 -57.8209
   -57.8101 -57.7956 -57.7903 -57.7562 -29.6453 -29.6135 -29.5784 -29.5573
   -29.5480 -29.5041 -29.4836 -29.4762 -29.4324 -29.4312 -29.4028 -29.3947
   -29.3853 -29.3112 -29.2693 -25.9227 -25.8928 -25.8516 -25.7930 -25.7723
   -25.7535 -25.7383 -25.7101 -25.6725 -25.6644 -25.6382 -25.6335 -25.6183
   -25.5987 -25.5793 -25.5667 -25.5532 -25.5447 -25.5338 -25.5232 -25.5096
    14.9841  15.2660  15.9130  15.9471  15.9748  15.9991  16.1423  16.1583
    16.2261  16.3676  16.4074  16.5100  16.5552  16.5728  16.6219  16.7195
    16.8847  16.9283  16.9733  16.9936  17.0383  17.0998  17.4870  17.5221
    17.5696  17.6720  17.7575  17.8152  18.0070  18.0248  18.1097  18.1443
    18.1855  18.2041  18.2380  18.2567  18.3594  18.4366  18.9523  19.0001
    19.0377  19.1102  19.1691  19.2980  19.4297  19.4564  19.4950  19.5362
    19.6206  19.6809  19.7601  19.8890  19.9805  20.2222  20.3021  20.4998
    20.6198  20.6767  20.7929  20.8624  20.9595  21.0286  21.2323  21.7127
    22.0381  22.8217  23.6112  25.5953  25.7340  26.4690  27.3099  27.5022
    28.7296  28.7629  29.5553  29.6766  30.5803  30.7441

          k = 0.2499-0.1325 0.1256 ( 23373 PWs)   bands (ev):

   -63.8820 -63.8083 -63.7403 -63.7063 -63.6483 -57.9088 -57.8265 -57.8196
   -57.8105 -57.7960 -57.7900 -57.7563 -29.6453 -29.6135 -29.5789 -29.5576
   -29.5480 -29.5042 -29.4836 -29.4761 -29.4324 -29.4311 -29.4027 -29.3942
   -29.3854 -29.3112 -29.2693 -25.9170 -25.8877 -25.8660 -25.7972 -25.7725
   -25.7495 -25.7290 -25.7006 -25.6716 -25.6683 -25.6462 -25.6382 -25.6198
   -25.6007 -25.5771 -25.5588 -25.5537 -25.5457 -25.5356 -25.5269 -25.5081
    15.2686  15.5785  15.7114  15.8794  15.9476  15.9997  16.0403  16.0951
    16.2128  16.3052  16.4834  16.5355  16.5980  16.6712  16.7986  16.8621
    16.8756  16.9154  16.9527  16.9717  16.9818  17.0173  17.1997  17.2919
    17.3583  17.4924  17.6867  17.8560  17.9000  18.0569  18.1035  18.1484
    18.2171  18.3121  18.3587  18.3818  18.4362  18.5115  18.8755  18.9103
    18.9430  19.0184  19.0997  19.1609  19.2540  19.3409  19.4874  19.5388
    19.5712  19.5987  19.6887  19.7251  20.1560  20.2990  20.3697  20.6256
    20.7067  20.7924  20.8985  20.9525  21.0283  21.0816  21.1255  21.3891
    23.2713  24.1076  24.1548  24.8920  25.2601  25.7782  26.0406  26.7041
    28.6521  29.9273  29.9949  30.2604  30.5156  30.9135

          k = 0.2501-0.1327-0.1256 ( 23367 PWs)   bands (ev):

   -63.8820 -63.8083 -63.7403 -63.7063 -63.6483 -57.9088 -57.8263 -57.8201
   -57.8101 -57.7957 -57.7903 -57.7562 -29.6453 -29.6135 -29.5789 -29.5575
   -29.5481 -29.5042 -29.4836 -29.4761 -29.4324 -29.4312 -29.4026 -29.3942
   -29.3853 -29.3112 -29.2693 -25.9169 -25.8886 -25.8647 -25.7961 -25.7745
   -25.7481 -25.7328 -25.7005 -25.6711 -25.6672 -25.6440 -25.6335 -25.6218
   -25.6014 -25.5804 -25.5608 -25.5544 -25.5462 -25.5348 -25.5231 -25.5092
    15.2707  15.5775  15.7095  15.8771  15.9507  16.0009  16.0359  16.0981
    16.2138  16.3049  16.4786  16.5415  16.5928  16.6768  16.7970  16.8665
    16.8773  16.9109  16.9464  16.9695  16.9845  17.0199  17.1891  17.2998
    17.3825  17.4724  17.6876  17.8489  17.9028  18.0574  18.0884  18.1740
    18.2387  18.3069  18.3474  18.3612  18.4349  18.5093  18.8643  18.9136
    18.9597  19.0122  19.1155  19.1788  19.2505  19.3337  19.4578  19.5250
    19.5724  19.6034  19.7091  19.7273  20.1189  20.3694  20.4319  20.6291
    20.6925  20.7010  20.8697  20.9535  21.0194  21.0866  21.1072  21.4425
    23.2767  24.1053  24.1874  24.8872  25.2307  25.7687  26.0370  26.7110
    28.6700  29.9244  29.9960  30.2354  30.5118  30.9220

          k = 0.2500-0.1327-0.0419 ( 23371 PWs)   bands (ev):

   -63.8820 -63.8083 -63.7403 -63.7063 -63.6483 -57.9088 -57.8252 -57.8215
   -57.8097 -57.7953 -57.7907 -57.7562 -29.6453 -29.6135 -29.5784 -29.5572
   -29.5481 -29.5041 -29.4836 -29.4761 -29.4324 -29.4312 -29.4028 -29.3947
   -29.3853 -29.3113 -29.2693 -25.9227 -25.8932 -25.8505 -25.7929 -25.7731
   -25.7482 -25.7468 -25.7088 -25.6730 -25.6633 -25.6355 -25.6269 -25.6221
   -25.5980 -25.5858 -25.5668 -25.5531 -25.5458 -25.5336 -25.5184 -25.5117
    14.9848  15.2657  15.9141  15.9449  15.9725  16.0015  16.1456  16.1605
    16.2190  16.3688  16.4068  16.5112  16.5518  16.5795  16.6178  16.7197
    16.8924  16.9252  16.9699  17.0004  17.0345  17.0923  17.4893  17.5335
    17.5741  17.6560  17.7714  17.7954  18.0208  18.0381  18.1086  18.1353
    18.1715  18.2096  18.2305  18.2624  18.3500  18.4442  18.9546  18.9917
    19.0433  19.1206  19.1696  19.2991  19.4157  19.4490  19.4771  19.5301
    19.6302  19.7051  19.7522  19.9193  19.9908  20.2003  20.3271  20.4987
    20.5783  20.6962  20.8164  20.8519  20.9424  21.0319  21.1745  21.7613
    22.0435  22.8145  23.6254  25.5958  25.7133  26.4817  27.2950  27.4967
    28.7336  28.7626  29.5538  29.7062  30.5790  30.7289

          k = 0.2500-0.0443 0.0419 ( 23366 PWs)   bands (ev):

   -63.8820 -63.8083 -63.7403 -63.7063 -63.6483 -57.9088 -57.8248 -57.8206
   -57.8117 -57.7953 -57.7900 -57.7563 -29.6453 -29.6135 -29.5784 -29.5573
   -29.5479 -29.5041 -29.4837 -29.4762 -29.4323 -29.4311 -29.4027 -29.3948
   -29.3856 -29.3111 -29.2693 -25.9221 -25.8894 -25.8507 -25.8066 -25.7748
   -25.7512 -25.7358 -25.7018 -25.6697 -25.6632 -25.6425 -25.6371 -25.6123
   -25.6035 -25.5776 -25.5653 -25.5496 -25.5454 -25.5346 -25.5281 -25.5088
    14.8191  15.5862  15.7539  15.8281  15.8603  15.8747  16.1425  16.1972
    16.2575  16.3155  16.3649  16.4085  16.4698  16.5256  16.6173  16.6412
    16.9456  17.1031  17.1560  17.2051  17.2614  17.3405  17.4500  17.4920
    17.5209  17.5872  17.7730  17.8461  17.8983  17.9263  18.0224  18.0900
    18.2240  18.3368  18.3828  18.5793  18.6434  18.7744  18.8196  18.8355
    18.8808  18.9003  19.0436  19.2144  19.4025  19.4887  19.5167  19.6896
    19.7286  19.7696  19.8764  19.9393  20.0591  20.1255  20.2236  20.3580
    20.4985  20.5398  20.7294  20.7875  20.9276  21.1008  21.1464  21.2439
    21.9403  23.0620  23.9240  24.2727  25.1102  26.9233  27.5213  28.9452
    29.0115  29.5359  29.7886  30.6207  30.9324  31.6628

          k = 0.2499-0.0442 0.1256 ( 23379 PWs)   bands (ev):

   -63.8820 -63.8083 -63.7403 -63.7063 -63.6483 -57.9088 -57.8253 -57.8205
   -57.8112 -57.7951 -57.7904 -57.7563 -29.6453 -29.6135 -29.5789 -29.5574
   -29.5480 -29.5042 -29.4837 -29.4761 -29.4323 -29.4311 -29.4026 -29.3943
   -29.3856 -29.3111 -29.2692 -25.9161 -25.8850 -25.8645 -25.8062 -25.7793
   -25.7507 -25.7236 -25.6978 -25.6694 -25.6616 -25.6482 -25.6318 -25.6178
   -25.6070 -25.5823 -25.5629 -25.5517 -25.5457 -25.5353 -25.5236 -25.5098
    15.0789  15.4682  15.8946  15.9121  15.9873  16.0681  16.1425  16.1744
    16.1930  16.2064  16.2689  16.2921  16.4454  16.5799  16.6796  16.6957
    16.9575  16.9844  17.0173  17.0496  17.1993  17.2143  17.4250  17.4539
    17.4970  17.5841  17.6139  17.7492  17.9037  18.0426  18.1827  18.2441
    18.3109  18.4205  18.4758  18.5676  18.6237  18.6796  18.7340  18.7518
    18.7940  18.8713  18.9681  18.9968  19.2157  19.2989  19.3715  19.4656
    19.6556  19.7026  19.8039  19.9725  20.0102  20.0807  20.1431  20.3138
    20.6703  20.7103  20.7975  20.8652  21.0856  21.1605  21.6515  22.3110
    22.6533  22.8165  23.4781  24.7931  25.0259  25.7610  27.9196  28.3250
    28.6433  29.0660  29.3681  29.9312  31.7362  31.9342

          k = 0.2501-0.0444-0.1256 ( 23384 PWs)   bands (ev):

   -63.8820 -63.8083 -63.7403 -63.7063 -63.6483 -57.9088 -57.8248 -57.8213
   -57.8108 -57.7947 -57.7908 -57.7562 -29.6453 -29.6135 -29.5789 -29.5573
   -29.5481 -29.5042 -29.4837 -29.4761 -29.4323 -29.4312 -29.4025 -29.3943
   -29.3855 -29.3111 -29.2692 -25.9159 -25.8865 -25.8625 -25.8052 -25.7810
   -25.7515 -25.7232 -25.7012 -25.6688 -25.6598 -25.6450 -25.6262 -25.6200
   -25.6084 -25.5864 -25.5648 -25.5529 -25.5452 -25.5348 -25.5187 -25.5122
    15.0809  15.4655  15.8958  15.9056  15.9924  16.0710  16.1403  16.1744
    16.1956  16.2075  16.2703  16.2868  16.4452  16.5806  16.6751  16.6972
    16.9558  16.9843  17.0228  17.0532  17.1946  17.2217  17.4102  17.4527
    17.5158  17.5766  17.6153  17.7423  17.9069  18.0499  18.1489  18.2756
    18.3270  18.4026  18.4703  18.5715  18.6015  18.6807  18.7230  18.7667
    18.8089  18.8748  18.9472  19.0091  19.2297  19.2893  19.3799  19.4945
    19.6043  19.6811  19.7872  20.0243  20.0479  20.0978  20.1559  20.2740
    20.6417  20.7051  20.8015  20.8582  21.0875  21.1829  21.5955  22.3453
    22.6827  22.8267  23.4515  24.7842  25.0258  25.7668  27.9185  28.3140
    28.6687  29.0454  29.3625  29.9374  31.7484  31.9082

          k = 0.2500-0.0444-0.0419 ( 23372 PWs)   bands (ev):

   -63.8820 -63.8083 -63.7403 -63.7063 -63.6483 -57.9088 -57.8243 -57.8216
   -57.8112 -57.7950 -57.7904 -57.7562 -29.6453 -29.6135 -29.5784 -29.5572
   -29.5480 -29.5041 -29.4837 -29.4761 -29.4323 -29.4312 -29.4027 -29.3948
   -29.3856 -29.3111 -29.2693 -25.9221 -25.8901 -25.8492 -25.8063 -25.7763
   -25.7505 -25.7380 -25.7029 -25.6691 -25.6616 -25.6434 -25.6301 -25.6140
   -25.6033 -25.5821 -25.5673 -25.5518 -25.5443 -25.5343 -25.5237 -25.5102
    14.8198  15.5855  15.7525  15.8277  15.8643  15.8709  16.1466  16.2001
    16.2524  16.3181  16.3647  16.4060  16.4674  16.5250  16.6180  16.6423
    16.9452  17.0987  17.1684  17.1989  17.2668  17.3414  17.4518  17.4897
    17.5272  17.5770  17.7667  17.8382  17.9065  17.9258  18.0349  18.0807
    18.2229  18.3338  18.3784  18.6004  18.6502  18.7757  18.8213  18.8387
    18.8551  18.8912  19.0380  19.2166  19.3731  19.5151  19.5561  19.6590
    19.7252  19.7745  19.8847  19.9704  20.0427  20.1139  20.2558  20.3451
    20.4828  20.5432  20.7438  20.7967  20.9003  21.0884  21.1558  21.2030
    21.9777  23.0756  23.9195  24.2539  25.1237  26.9129  27.5204  28.9440
    29.0173  29.5016  29.8390  30.6278  30.9053  31.6211

          k = 0.3500 0.0439 0.0419 ( 23375 PWs)   bands (ev):

   -63.8768 -63.8030 -63.7354 -63.7010 -63.6438 -57.8987 -57.8119 -57.8103
   -57.8043 -57.7916 -57.7862 -57.7503 -29.6389 -29.6124 -29.6036 -29.5740
   -29.5604 -29.5468 -29.4861 -29.4723 -29.4686 -29.4506 -29.4389 -29.4142
   -29.3915 -29.3369 -29.2818 -25.9407 -25.9173 -25.8613 -25.8337 -25.8158
   -25.7990 -25.7763 -25.7402 -25.7104 -25.6918 -25.6617 -25.6565 -25.6326
   -25.6173 -25.5872 -25.5773 -25.5668 -25.5566 -25.5423 -25.5371 -25.5282
    15.4033  15.5588  15.5713  15.6884  15.7261  15.7689  15.8172  16.0089
    16.0231  16.0820  16.2834  16.4074  16.4381  16.5119  16.7153  16.7200
    16.9109  17.0149  17.0325  17.0793  17.1472  17.1939  17.2977  17.3345
    17.5622  17.6259  17.6615  17.8345  17.9317  18.0004  18.0316  18.1775
    18.3215  18.6590  18.9596  19.0295  19.0814  19.1451  19.2075  19.2384
    19.3111  19.3323  19.4106  19.5085  19.8145  19.8744  19.9245  20.0352
    20.1402  20.2253  20.2968  20.3751  20.4301  20.5659  20.6101  20.6871
    20.7127  20.8153  20.8950  21.0001  21.1050  21.2537  21.3073  21.5272
    22.5514  24.1588  25.2126  25.3436  26.4036  26.4357  26.7224  27.5355
    29.4914  29.5785  30.2957  30.5369  30.5881  30.7488

          k = 0.3499 0.0440 0.1256 ( 23370 PWs)   bands (ev):

   -63.8768 -63.8030 -63.7354 -63.7010 -63.6438 -57.8987 -57.8117 -57.8109
   -57.8039 -57.7915 -57.7863 -57.7503 -29.6389 -29.6123 -29.6036 -29.5743
   -29.5607 -29.5468 -29.4861 -29.4725 -29.4684 -29.4505 -29.4390 -29.4141
   -29.3909 -29.3369 -29.2817 -25.9391 -25.9129 -25.8653 -25.8407 -25.8127
   -25.8064 -25.7652 -25.7399 -25.7063 -25.6841 -25.6706 -25.6537 -25.6350
   -25.6210 -25.5879 -25.5760 -25.5702 -25.5562 -25.5421 -25.5356 -25.5291
    15.4566  15.5051  15.6801  15.7211  15.7911  15.8402  15.8742  15.9263
    16.1702  16.2653  16.3530  16.3752  16.4461  16.4744  16.5114  16.7497
    16.8284  16.8484  16.9047  16.9464  17.2314  17.4194  17.4347  17.4972
    17.5443  17.6455  17.7338  17.8018  17.9248  17.9870  18.1159  18.1541
    18.3131  18.4251  18.5951  18.6588  18.6868  18.7130  18.9473  19.1879
    19.3351  19.3915  19.5201  19.5803  19.6331  19.6947  19.8837  20.0909
    20.1279  20.1607  20.3072  20.4219  20.5231  20.5679  20.6419  20.7424
    20.8482  20.9229  20.9981  21.0305  21.0698  21.1662  22.1488  23.1000
    23.1763  23.3940  24.3339  25.0187  26.5444  26.7780  27.2961  27.5642
    28.6778  29.6431  29.7025  29.7407  30.0203  30.0954

          k = 0.3501 0.0438-0.1256 ( 23379 PWs)   bands (ev):

   -63.8768 -63.8030 -63.7354 -63.7010 -63.6438 -57.8987 -57.8124 -57.8099
   -57.8042 -57.7916 -57.7862 -57.7503 -29.6389 -29.6123 -29.6036 -29.5744
   -29.5607 -29.5468 -29.4861 -29.4726 -29.4683 -29.4505 -29.4390 -29.4142
   -29.3909 -29.3369 -29.2817 -25.9392 -25.9130 -25.8638 -25.8424 -25.8215
   -25.7966 -25.7633 -25.7372 -25.7086 -25.6899 -25.6710 -25.6545 -25.6351
   -25.6183 -25.5854 -25.5760 -25.5680 -25.5572 -25.5429 -25.5371 -25.5291
    15.4584  15.5032  15.6831  15.7181  15.7888  15.8449  15.8767  15.9219
    16.1716  16.2639  16.3517  16.3783  16.4448  16.4658  16.5149  16.7488
    16.8301  16.8566  16.8987  16.9443  17.2391  17.4193  17.4393  17.4900
    17.5469  17.6636  17.7225  17.7853  17.9168  17.9745  18.1368  18.1633
    18.2970  18.4180  18.6100  18.6671  18.6893  18.7263  18.9550  19.1886
    19.3129  19.3967  19.4953  19.5970  19.6332  19.7093  19.8502  20.0542
    20.1160  20.2212  20.2953  20.4263  20.5239  20.5513  20.6465  20.7607
    20.8483  20.9170  20.9884  21.0268  21.0838  21.1655  22.1925  23.1040
    23.1599  23.3575  24.3408  25.0197  26.5598  26.7729  27.3056  27.5669
    28.6634  29.6296  29.6997  29.7604  30.0341  30.0566

          k = 0.3500 0.0439-0.0419 ( 23370 PWs)   bands (ev):

   -63.8768 -63.8030 -63.7354 -63.7010 -63.6438 -57.8987 -57.8125 -57.8094
   -57.8047 -57.7916 -57.7861 -57.7503 -29.6389 -29.6124 -29.6036 -29.5740
   -29.5603 -29.5468 -29.4860 -29.4723 -29.4686 -29.4506 -29.4389 -29.4143
   -29.3915 -29.3369 -29.2818 -25.9408 -25.9173 -25.8586 -25.8406 -25.8153
   -25.7939 -25.7770 -25.7310 -25.7184 -25.6955 -25.6642 -25.6555 -25.6329
   -25.6153 -25.5841 -25.5777 -25.5627 -25.5595 -25.5426 -25.5390 -25.5282
    15.4037  15.5594  15.5711  15.6874  15.7269  15.7681  15.8190  16.0078
    16.0233  16.0816  16.2845  16.4025  16.4442  16.5076  16.7035  16.7299
    16.9134  17.0099  17.0372  17.0698  17.1679  17.1974  17.2768  17.3440
    17.5632  17.6339  17.6549  17.8250  17.9368  18.0021  18.0260  18.1717
    18.3281  18.6685  18.9316  19.0383  19.1186  19.1587  19.2033  19.2496
    19.3034  19.3469  19.3848  19.5003  19.7837  19.8921  19.9448  19.9909
    20.1439  20.2001  20.2818  20.3928  20.4619  20.5573  20.6024  20.6593
    20.7451  20.7766  20.9433  20.9992  21.0583  21.2754  21.3699  21.5258
    22.5302  24.1346  25.2321  25.3456  26.4099  26.4305  26.7183  27.5438
    29.4881  29.5858  30.2929  30.4641  30.5958  30.8212

          k = 0.3500 0.1322 0.0419 ( 23355 PWs)   bands (ev):

   -63.8768 -63.8030 -63.7354 -63.7010 -63.6438 -57.8987 -57.8122 -57.8105
   -57.8036 -57.7917 -57.7862 -57.7503 -29.6389 -29.6123 -29.6036 -29.5739
   -29.5604 -29.5467 -29.4859 -29.4718 -29.4690 -29.4512 -29.4388 -29.4140
   -29.3915 -29.3369 -29.2818 -25.9348 -25.9206 -25.8724 -25.8288 -25.8124
   -25.7972 -25.7735 -25.7502 -25.7036 -25.6921 -25.6662 -25.6471 -25.6356
   -25.6179 -25.5900 -25.5752 -25.5685 -25.5588 -25.5415 -25.5355 -25.5282
    15.3850  15.5169  15.7720  15.8180  15.8588  15.9764  16.0130  16.0224
    16.0735  16.1514  16.2198  16.2686  16.2828  16.3193  16.3694  16.4346
    16.6518  16.7239  16.7390  16.9797  17.0357  17.2564  17.6786  17.7863
    17.9179  17.9270  17.9669  18.0596  18.1015  18.1558  18.2085  18.2888
    18.3510  18.4636  18.5334  18.5985  18.7953  18.8810  18.9009  18.9359
    19.3314  19.4407  19.5344  19.6028  19.7365  19.8366  19.8857  19.9391
    20.0717  20.2502  20.3352  20.3840  20.4342  20.5255  20.5698  20.6429
    20.6830  20.7969  20.8341  20.8607  20.9571  21.0694  21.8407  22.7257
    23.0069  23.9872  24.3184  25.9637  26.7368  27.5413  27.7308  28.0988
    28.2648  28.5465  28.6391  28.9083  29.3344  29.3966

          k = 0.3499 0.1323 0.1256 ( 23390 PWs)   bands (ev):

   -63.8768 -63.8030 -63.7354 -63.7010 -63.6438 -57.8987 -57.8130 -57.8094
   -57.8039 -57.7918 -57.7862 -57.7503 -29.6389 -29.6123 -29.6036 -29.5744
   -29.5606 -29.5468 -29.4859 -29.4721 -29.4687 -29.4511 -29.4389 -29.4140
   -29.3909 -29.3369 -29.2817 -25.9338 -25.9149 -25.8769 -25.8370 -25.8196
   -25.7931 -25.7597 -25.7425 -25.7061 -25.6884 -25.6799 -25.6508 -25.6350
   -25.6162 -25.5835 -25.5738 -25.5696 -25.5604 -25.5428 -25.5370 -25.5292
    15.6215  15.6463  15.6496  15.7247  15.9210  15.9452  15.9702  16.0241
    16.0552  16.0950  16.1229  16.3608  16.4046  16.4384  16.4499  16.5283
    16.7704  16.7988  16.8296  16.9857  17.0965  17.3205  17.3627  17.6986
    17.7270  17.8418  17.8816  17.9388  17.9946  18.0698  18.1079  18.2913
    18.3158  18.3357  18.4751  18.4983  18.6701  18.7933  18.9135  18.9853
    19.1131  19.2652  19.3287  19.3555  19.6713  19.7779  19.9151  20.0133
    20.2500  20.3256  20.4478  20.5676  20.5995  20.6770  20.7433  20.7982
    20.8476  20.9020  21.0136  21.0739  21.1302  21.1871  21.2583  22.1220
    24.0770  24.9378  25.3234  25.7456  25.9038  26.4758  27.0011  27.3446
    28.3022  28.4839  28.6915  28.9837  29.1791  30.5538

          k = 0.3501 0.1321-0.1256 ( 23383 PWs)   bands (ev):

   -63.8768 -63.8030 -63.7354 -63.7010 -63.6438 -57.8987 -57.8133 -57.8087
   -57.8044 -57.7918 -57.7861 -57.7503 -29.6389 -29.6123 -29.6036 -29.5745
   -29.5606 -29.5468 -29.4858 -29.4721 -29.4687 -29.4511 -29.4389 -29.4141
   -29.3909 -29.3369 -29.2817 -25.9338 -25.9147 -25.8774 -25.8378 -25.8189
   -25.7945 -25.7560 -25.7369 -25.7095 -25.6948 -25.6804 -25.6541 -25.6316
   -25.6146 -25.5790 -25.5762 -25.5666 -25.5618 -25.5436 -25.5386 -25.5292
    15.6191  15.6440  15.6566  15.7236  15.9247  15.9463  15.9632  16.0202
    16.0656  16.0890  16.1255  16.3542  16.4092  16.4408  16.4525  16.5209
    16.7720  16.7938  16.8320  16.9914  17.0958  17.3162  17.3628  17.7020
    17.7227  17.8515  17.8825  17.9316  18.0234  18.0350  18.1058  18.2853
    18.3107  18.3401  18.4832  18.5207  18.6414  18.8028  18.9265  19.0118
    19.1103  19.2716  19.3079  19.3393  19.6355  19.8163  19.9106  20.0140
    20.2717  20.3047  20.4874  20.5175  20.5804  20.6712  20.7395  20.7830
    20.8127  20.9150  21.0540  21.0770  21.1192  21.2151  21.3036  22.0873
    24.0879  24.9181  25.3371  25.7011  25.9546  26.4812  27.0042  27.3248
    28.3073  28.4812  28.6714  29.0033  29.1759  30.5742

          k = 0.3500 0.1322-0.0419 ( 23357 PWs)   bands (ev):

   -63.8768 -63.8030 -63.7354 -63.7010 -63.6438 -57.8987 -57.8127 -57.8096
   -57.8040 -57.7918 -57.7861 -57.7503 -29.6389 -29.6123 -29.6036 -29.5740
   -29.5603 -29.5467 -29.4859 -29.4719 -29.4690 -29.4512 -29.4388 -29.4140
   -29.3915 -29.3369 -29.2818 -25.9349 -25.9204 -25.8731 -25.8279 -25.8150
   -25.7974 -25.7701 -25.7456 -25.7080 -25.6928 -25.6700 -25.6510 -25.6324
   -25.6152 -25.5863 -25.5765 -25.5669 -25.5591 -25.5421 -25.5371 -25.5283
    15.3855  15.5167  15.7673  15.8216  15.8614  15.9767  16.0167  16.0236
    16.0731  16.1473  16.2063  16.2774  16.2826  16.3251  16.3682  16.4333
    16.6471  16.7258  16.7376  16.9836  17.0334  17.2583  17.6646  17.8134
    17.9083  17.9350  17.9717  18.0355  18.0715  18.1894  18.2308  18.2755
    18.3380  18.4423  18.5619  18.5955  18.7929  18.8906  18.9127  18.9509
    19.3295  19.4403  19.5225  19.5694  19.7383  19.7983  19.9405  19.9783
    20.0185  20.2310  20.3327  20.3937  20.4277  20.5494  20.5761  20.6575
    20.6851  20.7704  20.8046  20.8786  20.9650  21.0801  21.8627  22.7180
    22.9856  24.0071  24.3100  25.9652  26.7294  27.5467  27.7361  28.1217
    28.2637  28.5429  28.6290  28.8628  29.3278  29.4387

          k = 0.3500-0.1327 0.0419 ( 23358 PWs)   bands (ev):

   -63.8768 -63.8030 -63.7354 -63.7010 -63.6438 -57.8987 -57.8127 -57.8097
   -57.8039 -57.7918 -57.7861 -57.7503 -29.6389 -29.6123 -29.6036 -29.5740
   -29.5604 -29.5467 -29.4859 -29.4719 -29.4689 -29.4512 -29.4388 -29.4140
   -29.3915 -29.3369 -29.2818 -25.9354 -25.9200 -25.8724 -25.8283 -25.8154
   -25.7970 -25.7707 -25.7452 -25.7080 -25.6930 -25.6697 -25.6512 -25.6324
   -25.6151 -25.5864 -25.5764 -25.5668 -25.5593 -25.5421 -25.5370 -25.5283
    15.3833  15.5183  15.7650  15.8196  15.8597  15.9794  16.0169  16.0260
    16.0722  16.1500  16.2083  16.2776  16.2828  16.3225  16.3676  16.4345
    16.6481  16.7269  16.7375  16.9874  17.0357  17.2562  17.6622  17.8109
    17.9066  17.9315  17.9683  18.0340  18.0702  18.1893  18.2287  18.2755
    18.3428  18.4445  18.5649  18.5983  18.7901  18.8934  18.9125  18.9511
    19.3274  19.4395  19.5233  19.5701  19.7354  19.7973  19.9410  19.9790
    20.0197  20.2317  20.3321  20.3942  20.4274  20.5494  20.5769  20.6579
    20.6847  20.7722  20.8032  20.8770  20.9638  21.0827  21.8712  22.7138
    22.9857  23.9922  24.3141  25.9636  26.7492  27.5557  27.7388  28.1126
    28.2494  28.5543  28.6216  28.8738  29.3143  29.4291

          k = 0.3499-0.1326 0.1256 ( 23391 PWs)   bands (ev):

   -63.8768 -63.8030 -63.7354 -63.7010 -63.6438 -57.8987 -57.8133 -57.8087
   -57.8044 -57.7918 -57.7861 -57.7503 -29.6389 -29.6123 -29.6036 -29.5745
   -29.5606 -29.5468 -29.4858 -29.4722 -29.4687 -29.4511 -29.4389 -29.4141
   -29.3909 -29.3369 -29.2817 -25.9341 -25.9146 -25.8768 -25.8381 -25.8189
   -25.7944 -25.7566 -25.7367 -25.7093 -25.6950 -25.6802 -25.6542 -25.6316
   -25.6145 -25.5787 -25.5764 -25.5667 -25.5618 -25.5437 -25.5385 -25.5292
    15.6168  15.6417  15.6542  15.7246  15.9271  15.9489  15.9643  16.0220
    16.0646  16.0879  16.1241  16.3549  16.4099  16.4430  16.4543  16.5210
    16.7724  16.7956  16.8329  16.9901  17.0960  17.3168  17.3619  17.6984
    17.7197  17.8477  17.8783  17.9273  18.0235  18.0384  18.1084  18.2843
    18.3128  18.3403  18.4873  18.5235  18.6388  18.8046  18.9249  19.0076
    19.1109  19.2746  19.3089  19.3409  19.6328  19.8155  19.9127  20.0143
    20.2724  20.3054  20.4890  20.5182  20.5805  20.6704  20.7399  20.7819
    20.8114  20.9144  21.0536  21.0784  21.1215  21.2178  21.2996  22.0863
    24.0804  24.9222  25.3223  25.7143  25.9676  26.4790  27.0125  27.3194
    28.2931  28.4684  28.6861  29.0072  29.1758  30.5535

          k = 0.3501-0.1328-0.1256 ( 23392 PWs)   bands (ev):

   -63.8768 -63.8030 -63.7354 -63.7010 -63.6438 -57.8987 -57.8131 -57.8093
   -57.8040 -57.7918 -57.7861 -57.7503 -29.6389 -29.6123 -29.6036 -29.5744
   -29.5606 -29.5468 -29.4859 -29.4721 -29.4687 -29.4511 -29.4389 -29.4140
   -29.3909 -29.3369 -29.2817 -25.9341 -25.9145 -25.8772 -25.8363 -25.8195
   -25.7933 -25.7604 -25.7422 -25.7063 -25.6882 -25.6800 -25.6508 -25.6349
   -25.6162 -25.5833 -25.5739 -25.5694 -25.5605 -25.5428 -25.5370 -25.5292
    15.6194  15.6447  15.6477  15.7275  15.9235  15.9456  15.9704  16.0254
    16.0541  16.0948  16.1218  16.3621  16.4042  16.4403  16.4500  16.5313
    16.7698  16.7987  16.8298  16.9846  17.0940  17.3197  17.3646  17.6941
    17.7262  17.8428  17.8832  17.9380  17.9954  18.0713  18.1064  18.2928
    18.3168  18.3373  18.4694  18.4933  18.6722  18.7965  18.9105  18.9861
    19.1150  19.2635  19.3307  19.3582  19.6703  19.7768  19.9169  20.0133
    20.2505  20.3267  20.4493  20.5682  20.5996  20.6757  20.7420  20.7975
    20.8474  20.9019  21.0134  21.0743  21.1304  21.1874  21.2578  22.1132
    24.0885  24.9482  25.3291  25.7446  25.8988  26.4717  26.9895  27.3404
    28.2885  28.4713  28.6991  29.0017  29.1992  30.5514

          k = 0.3500-0.1327-0.0419 ( 23360 PWs)   bands (ev):

   -63.8768 -63.8030 -63.7354 -63.7010 -63.6438 -57.8987 -57.8122 -57.8104
   -57.8036 -57.7917 -57.7862 -57.7503 -29.6389 -29.6123 -29.6036 -29.5739
   -29.5604 -29.5467 -29.4859 -29.4718 -29.4690 -29.4512 -29.4388 -29.4140
   -29.3915 -29.3369 -29.2818 -25.9353 -25.9200 -25.8725 -25.8285 -25.8121
   -25.7977 -25.7741 -25.7498 -25.7037 -25.6921 -25.6662 -25.6470 -25.6356
   -25.6179 -25.5900 -25.5752 -25.5684 -25.5589 -25.5415 -25.5355 -25.5283
    15.3831  15.5191  15.7704  15.8177  15.8570  15.9763  16.0141  16.0238
    16.0718  16.1539  16.2226  16.2693  16.2824  16.3196  16.3684  16.4343
    16.6482  16.7249  16.7434  16.9784  17.0383  17.2529  17.6752  17.7875
    17.9190  17.9331  17.9670  18.0548  18.1010  18.1540  18.2091  18.2886
    18.3481  18.4637  18.5327  18.6037  18.7928  18.8792  18.9016  18.9374
    19.3286  19.4414  19.5348  19.6028  19.7359  19.8358  19.8866  19.9408
    20.0718  20.2507  20.3355  20.3843  20.4339  20.5260  20.5692  20.6421
    20.6834  20.7971  20.8325  20.8595  20.9572  21.0709  21.8397  22.7368
    22.9947  23.9898  24.3248  25.9615  26.7397  27.5294  27.7531  28.1003
    28.2505  28.5510  28.6291  28.8968  29.3382  29.4089

          k = 0.3500-0.0444 0.0419 ( 23377 PWs)   bands (ev):

   -63.8768 -63.8030 -63.7354 -63.7010 -63.6438 -57.8987 -57.8125 -57.8094
   -57.8047 -57.7916 -57.7861 -57.7503 -29.6389 -29.6124 -29.6036 -29.5740
   -29.5603 -29.5468 -29.4860 -29.4723 -29.4686 -29.4505 -29.4389 -29.4143
   -29.3915 -29.3369 -29.2818 -25.9410 -25.9172 -25.8578 -25.8412 -25.8152
   -25.7938 -25.7775 -25.7309 -25.7183 -25.6956 -25.6640 -25.6557 -25.6329
   -25.6152 -25.5839 -25.5778 -25.5627 -25.5595 -25.5427 -25.5390 -25.5282
    15.4025  15.5580  15.5709  15.6858  15.7275  15.7698  15.8183  16.0091
    16.0226  16.0821  16.2859  16.4031  16.4469  16.5103  16.7025  16.7288
    16.9158  17.0106  17.0379  17.0692  17.1678  17.1967  17.2743  17.3413
    17.5621  17.6342  17.6543  17.8306  17.9344  17.9984  18.0205  18.1720
    18.3262  18.6739  18.9337  19.0369  19.1208  19.1573  19.2061  19.2485
    19.3000  19.3512  19.3844  19.4999  19.7805  19.8933  19.9446  19.9910
    20.1441  20.2002  20.2832  20.3927  20.4622  20.5596  20.6028  20.6596
    20.7456  20.7786  20.9456  20.9989  21.0551  21.2786  21.3655  21.5188
    22.5332  24.1339  25.2138  25.3645  26.4111  26.4312  26.7269  27.5343
    29.5021  29.5731  30.3014  30.4574  30.5958  30.8090

          k = 0.3499-0.0443 0.1256 ( 23375 PWs)   bands (ev):

   -63.8768 -63.8030 -63.7354 -63.7010 -63.6438 -57.8987 -57.8125 -57.8098
   -57.8042 -57.7916 -57.7862 -57.7503 -29.6389 -29.6124 -29.6036 -29.5744
   -29.5607 -29.5468 -29.4861 -29.4726 -29.4683 -29.4505 -29.4390 -29.4142
   -29.3909 -29.3369 -29.2817 -25.9394 -25.9130 -25.8635 -25.8423 -25.8214
   -25.7968 -25.7637 -25.7373 -25.7085 -25.6898 -25.6710 -25.6548 -25.6350
   -25.6183 -25.5851 -25.5760 -25.5681 -25.5572 -25.5430 -25.5370 -25.5291
    15.4571  15.5017  15.6821  15.7181  15.7887  15.8450  15.8772  15.9242
    16.1702  16.2644  16.3538  16.3800  16.4461  16.4668  16.5156  16.7501
    16.8310  16.8560  16.8987  16.9455  17.2377  17.4165  17.4410  17.4865
    17.5449  17.6607  17.7232  17.7850  17.9143  17.9709  18.1387  18.1647
    18.2924  18.4221  18.6117  18.6684  18.6917  18.7242  18.9592  19.1869
    19.3117  19.3958  19.4950  19.5987  19.6337  19.7101  19.8512  20.0551
    20.1167  20.2208  20.2949  20.4280  20.5245  20.5517  20.6467  20.7601
    20.8485  20.9152  20.9876  21.0267  21.0836  21.1687  22.1836  23.0975
    23.1562  23.3600  24.3559  25.0293  26.5422  26.7761  27.2982  27.5682
    28.6667  29.6472  29.7036  29.7610  30.0353  30.0517

          k = 0.3501-0.0445-0.1256 ( 23371 PWs)   bands (ev):

   -63.8768 -63.8030 -63.7354 -63.7010 -63.6438 -57.8987 -57.8117 -57.8108
   -57.8039 -57.7916 -57.7863 -57.7503 -29.6389 -29.6123 -29.6036 -29.5743
   -29.5607 -29.5468 -29.4861 -29.4725 -29.4684 -29.4505 -29.4390 -29.4142
   -29.3909 -29.3369 -29.2817 -25.9394 -25.9126 -25.8653 -25.8404 -25.8125
   -25.8068 -25.7656 -25.7396 -25.7064 -25.6840 -25.6706 -25.6536 -25.6349
   -25.6211 -25.5879 -25.5760 -25.5701 -25.5563 -25.5421 -25.5356 -25.5291
    15.4560  15.5045  15.6787  15.7214  15.7914  15.8404  15.8755  15.9260
    16.1696  16.2669  16.3517  16.3769  16.4438  16.4752  16.5122  16.7503
    16.8305  16.8494  16.9055  16.9499  17.2341  17.4169  17.4316  17.4942
    17.5438  17.6439  17.7279  17.7976  17.9245  17.9899  18.1219  18.1580
    18.3162  18.4224  18.5920  18.6595  18.6871  18.7123  18.9447  19.1877
    19.3362  19.3932  19.5201  19.5797  19.6325  19.6945  19.8844  20.0912
    20.1280  20.1611  20.3069  20.4222  20.5228  20.5675  20.6399  20.7423
    20.8473  20.9238  20.9985  21.0320  21.0710  21.1657  22.1467  23.1078
    23.1650  23.4052  24.3367  25.0092  26.5478  26.7737  27.3012  27.5771
    28.6682  29.6501  29.6989  29.7330  30.0386  30.0791

          k = 0.3500-0.0444-0.0419 ( 23375 PWs)   bands (ev):

   -63.8768 -63.8030 -63.7354 -63.7010 -63.6438 -57.8987 -57.8119 -57.8104
   -57.8042 -57.7916 -57.7862 -57.7503 -29.6389 -29.6124 -29.6036 -29.5739
   -29.5603 -29.5468 -29.4861 -29.4723 -29.4686 -29.4505 -29.4389 -29.4142
   -29.3915 -29.3369 -29.2818 -25.9411 -25.9169 -25.8609 -25.8340 -25.8159
   -25.7990 -25.7766 -25.7399 -25.7105 -25.6919 -25.6615 -25.6565 -25.6326
   -25.6173 -25.5874 -25.5772 -25.5667 -25.5568 -25.5422 -25.5370 -25.5282
    15.4020  15.5596  15.5710  15.6887  15.7272  15.7681  15.8178  16.0067
    16.0230  16.0805  16.2843  16.4066  16.4408  16.5153  16.7158  16.7203
    16.9100  17.0166  17.0355  17.0789  17.1471  17.1938  17.2966  17.3338
    17.5571  17.6210  17.6634  17.8352  17.9284  18.0003  18.0332  18.1824
    18.3243  18.6606  18.9612  19.0269  19.0795  19.1434  19.2073  19.2376
    19.3084  19.3304  19.4099  19.5097  19.8152  19.8747  19.9246  20.0350
    20.1408  20.2250  20.2962  20.3749  20.4291  20.5651  20.6099  20.6875
    20.7127  20.8148  20.8950  20.9996  21.1062  21.2521  21.3077  21.5359
    22.5584  24.1427  25.2136  25.3454  26.4097  26.4494  26.7125  27.5420
    29.5018  29.5688  30.2810  30.5213  30.6090  30.7315

          k = 0.4500 0.0439 0.0419 ( 23380 PWs)   bands (ev):

   -63.8736 -63.7996 -63.7323 -63.6977 -63.6410 -57.8923 -57.8035 -57.8013
   -57.8003 -57.7913 -57.7841 -57.7466 -29.6473 -29.6350 -29.6060 -29.5965
   -29.5770 -29.5478 -29.4967 -29.4831 -29.4733 -29.4658 -29.4588 -29.4150
   -29.3891 -29.3418 -29.2930 -25.9847 -25.9360 -25.8940 -25.8665 -25.8553
   -25.8315 -25.7996 -25.7375 -25.7143 -25.6876 -25.6791 -25.6466 -25.6343
   -25.6193 -25.5969 -25.5831 -25.5783 -25.5712 -25.5596 -25.5439 -25.5244
    15.2882  15.3461  15.3778  15.4250  15.6450  15.6951  15.7337  15.7914
    15.9648  16.0776  16.3293  16.3502  16.3855  16.4321  16.4448  16.5760
    16.8264  16.8492  16.8726  16.9277  17.2017  17.2738  17.5241  17.5891
    17.6476  17.6856  17.7071  17.7968  17.8198  17.8415  17.9280  17.9916
    18.7955  18.8522  18.9736  19.0140  19.1327  19.2060  19.4262  19.5272
    19.5913  19.8820  19.9614  19.9904  20.0716  20.2557  20.3613  20.4138
    20.4743  20.5473  20.6296  20.6455  20.6928  20.7771  20.8437  20.9989
    21.0631  21.1090  21.1900  21.2747  21.6553  22.3770  22.5168  22.7495
    23.0721  24.2275  25.0771  25.1658  25.5627  26.4741  26.7557  27.9042
    28.2296  28.4606  28.8313  28.9022  29.3677  30.1320

          k = 0.4499 0.0439 0.1256 ( 23400 PWs)   bands (ev):

   -63.8736 -63.7996 -63.7323 -63.6977 -63.6410 -57.8923 -57.8035 -57.8016
   -57.8001 -57.7913 -57.7841 -57.7466 -29.6473 -29.6351 -29.6060 -29.5966
   -29.5774 -29.5481 -29.4967 -29.4829 -29.4736 -29.4658 -29.4589 -29.4150
   -29.3886 -29.3418 -29.2928 -25.9833 -25.9325 -25.8990 -25.8742 -25.8501
   -25.8345 -25.7834 -25.7461 -25.7138 -25.6887 -25.6765 -25.6525 -25.6337
   -25.6145 -25.5954 -25.5832 -25.5785 -25.5711 -25.5619 -25.5450 -25.5256
    15.2029  15.2293  15.4979  15.5153  15.5516  15.6000  15.9750  16.0136
    16.0958  16.1984  16.2573  16.2682  16.3797  16.4245  16.5470  16.6861
    16.8339  16.8533  16.9290  16.9808  17.1806  17.2777  17.3372  17.4980
    17.5549  17.6161  17.6617  17.7112  17.8595  18.0050  18.1286  18.2446
    18.3369  18.5119  18.5302  18.6263  19.1389  19.2282  19.2585  19.2858
    19.5214  19.6152  19.8157  19.8902  19.9680  20.2706  20.3867  20.4226
    20.5564  20.6243  20.6863  20.7459  20.8503  20.9176  20.9870  21.0337
    21.0628  21.2683  21.3171  21.3690  22.4260  22.5601  22.9121  23.5687
    23.7710  24.2533  24.4381  24.6299  24.7880  25.0083  27.9747  28.1748
    28.3293  28.8347  29.0190  29.0544  29.2923  30.6616

          k = 0.4501 0.0437-0.1256 ( 23404 PWs)   bands (ev):

   -63.8736 -63.7996 -63.7323 -63.6977 -63.6410 -57.8923 -57.8035 -57.8014
   -57.8002 -57.7913 -57.7841 -57.7466 -29.6473 -29.6351 -29.6060 -29.5966
   -29.5774 -29.5481 -29.4967 -29.4829 -29.4734 -29.4658 -29.4589 -29.4150
   -29.3886 -29.3418 -29.2928 -25.9836 -25.9332 -25.8955 -25.8701 -25.8562
   -25.8366 -25.7877 -25.7393 -25.7128 -25.6841 -25.6792 -25.6532 -25.6368
   -25.6170 -25.5944 -25.5825 -25.5779 -25.5720 -25.5619 -25.5440 -25.5256
    15.2030  15.2289  15.4977  15.5187  15.5492  15.6007  15.9752  16.0139
    16.0968  16.1995  16.2569  16.2688  16.3750  16.4201  16.5451  16.6873
    16.8402  16.8547  16.9261  16.9780  17.1895  17.2705  17.3461  17.5141
    17.5321  17.6251  17.6612  17.7059  17.8429  18.0242  18.1191  18.2419
    18.3362  18.5071  18.5326  18.6223  19.1839  19.2377  19.2649  19.3264
    19.4773  19.5633  19.8154  19.9173  19.9616  20.2625  20.3242  20.4234
    20.4910  20.6642  20.7286  20.7741  20.8402  20.9288  21.0180  21.0393
    21.0857  21.2409  21.3148  21.3488  22.4266  22.5537  22.9289  23.5911
    23.7535  24.2429  24.4268  24.6155  24.7911  25.0226  27.9916  28.1715
    28.3336  28.8334  29.0153  29.0510  29.2984  30.6464

          k = 0.4500 0.0438-0.0419 ( 23391 PWs)   bands (ev):

   -63.8736 -63.7996 -63.7323 -63.6977 -63.6410 -57.8923 -57.8036 -57.8011
   -57.8005 -57.7913 -57.7841 -57.7466 -29.6473 -29.6350 -29.6060 -29.5965
   -29.5770 -29.5478 -29.4967 -29.4832 -29.4732 -29.4658 -29.4588 -29.4150
   -29.3891 -29.3418 -29.2930 -25.9850 -25.9365 -25.8890 -25.8643 -25.8600
   -25.8347 -25.8028 -25.7311 -25.7132 -25.6906 -25.6734 -25.6490 -25.6391
   -25.6187 -25.5976 -25.5844 -25.5745 -25.5729 -25.5598 -25.5430 -25.5244
    15.2883  15.3454  15.3777  15.4247  15.6475  15.7019  15.7294  15.7913
    15.9624  16.0735  16.3346  16.3497  16.3808  16.4268  16.4501  16.5786
    16.8230  16.8525  16.8747  16.9207  17.1999  17.2816  17.5283  17.6089
    17.6528  17.6681  17.6979  17.7925  17.8240  17.8332  17.9269  17.9893
    18.7994  18.8646  18.9823  19.0214  19.1345  19.2102  19.4080  19.5197
    19.5735  19.8697  19.9612  20.0458  20.1580  20.2337  20.3015  20.3583
    20.4324  20.5447  20.5753  20.6616  20.7107  20.7838  20.8706  21.0147
    21.0773  21.1300  21.2132  21.2574  21.6687  22.3727  22.4998  22.7468
    23.0829  24.2266  25.0799  25.1636  25.5415  26.4777  26.7737  27.9063
    28.2300  28.4662  28.8281  28.8926  29.3868  30.1081

          k = 0.4500 0.1322 0.0419 ( 23373 PWs)   bands (ev):

   -63.8736 -63.7996 -63.7323 -63.6977 -63.6410 -57.8923 -57.8035 -57.8014
   -57.8002 -57.7913 -57.7841 -57.7466 -29.6472 -29.6350 -29.6059 -29.5965
   -29.5770 -29.5478 -29.4968 -29.4826 -29.4741 -29.4659 -29.4586 -29.4152
   -29.3891 -29.3416 -29.2929 -25.9758 -25.9362 -25.9095 -25.8702 -25.8539
   -25.8346 -25.7904 -25.7318 -25.7134 -25.6940 -25.6768 -25.6408 -25.6317
   -25.6219 -25.5975 -25.5837 -25.5806 -25.5712 -25.5609 -25.5445 -25.5244
    15.4469  15.5658  15.6064  15.6097  15.7848  15.8188  15.8359  15.8878
    15.9027  16.0010  16.0147  16.0317  16.0643  16.0819  16.2785  16.3258
    16.4058  16.4597  16.7035  16.7785  17.2718  17.4640  17.6378  17.7294
    18.0149  18.0671  18.1555  18.1940  18.2523  18.3355  18.3827  18.4560
    18.5174  18.6117  18.7253  18.8529  19.1843  19.2323  19.2905  19.3617
    19.4474  19.5016  19.5726  19.6569  19.9072  20.0460  20.1108  20.2606
    20.3887  20.4132  20.5570  20.6149  20.6708  20.7301  20.7768  20.9032
    21.0446  21.1897  21.2429  21.2883  21.8447  22.2055  23.4240  23.5412
    24.0732  24.1527  24.4802  25.4577  25.7261  26.0768  26.5177  27.3859
    28.3844  28.6258  29.2502  29.4801  29.8544  30.1438

          k = 0.4499 0.1322 0.1256 ( 23375 PWs)   bands (ev):

   -63.8736 -63.7996 -63.7323 -63.6977 -63.6410 -57.8923 -57.8036 -57.8013
   -57.8003 -57.7913 -57.7841 -57.7466 -29.6472 -29.6351 -29.6059 -29.5965
   -29.5774 -29.5481 -29.4968 -29.4826 -29.4741 -29.4660 -29.4586 -29.4152
   -29.3886 -29.3416 -29.2927 -25.9750 -25.9333 -25.9091 -25.8707 -25.8584
   -25.8405 -25.7833 -25.7281 -25.7109 -25.6883 -25.6761 -25.6510 -25.6379
   -25.6187 -25.5949 -25.5855 -25.5774 -25.5718 -25.5633 -25.5438 -25.5255
    15.4280  15.4624  15.6551  15.7251  15.7630  15.8005  15.8360  15.8801
    15.9185  15.9476  15.9856  16.0457  16.1076  16.1856  16.2006  16.2530
    16.8145  16.8323  17.0404  17.0506  17.2397  17.3236  17.4652  17.5644
    17.8057  17.9386  18.0036  18.1301  18.1763  18.2520  18.3419  18.3712
    18.5419  18.6072  18.6432  18.7049  18.7396  18.7781  18.8364  18.9288
    19.1317  19.2966  19.8239  19.8584  19.9429  20.0693  20.3345  20.4292
    20.5410  20.6490  20.6849  20.7726  20.8423  20.9711  20.9982  21.1002
    21.1600  21.2743  21.3126  21.3723  22.3496  22.4339  22.8142  23.4308
    24.2055  24.4575  24.9804  25.0758  25.3274  25.8022  26.4987  27.3680
    28.3253  28.4866  29.4576  29.6906  30.1011  30.3113

          k = 0.4501 0.1320-0.1256 ( 23381 PWs)   bands (ev):

   -63.8736 -63.7996 -63.7323 -63.6977 -63.6410 -57.8923 -57.8036 -57.8011
   -57.8005 -57.7913 -57.7841 -57.7466 -29.6472 -29.6351 -29.6058 -29.5965
   -29.5774 -29.5481 -29.4969 -29.4827 -29.4740 -29.4660 -29.4586 -29.4152
   -29.3886 -29.3416 -29.2927 -25.9755 -25.9337 -25.9064 -25.8643 -25.8635
   -25.8449 -25.7869 -25.7204 -25.7083 -25.6907 -25.6738 -25.6555 -25.6388
   -25.6197 -25.5957 -25.5856 -25.5747 -25.5733 -25.5632 -25.5431 -25.5256
    15.4264  15.4624  15.6571  15.7239  15.7637  15.8121  15.8297  15.8789
    15.9247  15.9517  15.9752  16.0404  16.1099  16.1770  16.2129  16.2465
    16.8090  16.8294  17.0544  17.0730  17.2102  17.3245  17.4472  17.5729
    17.8276  17.9676  18.0015  18.1143  18.1558  18.2415  18.3140  18.3458
    18.5837  18.6328  18.6480  18.6914  18.7709  18.8007  18.8315  18.9112
    19.1218  19.2975  19.8015  19.8419  19.9365  20.0884  20.3638  20.4306
    20.5200  20.6371  20.6666  20.7671  20.8457  20.9345  20.9979  21.1468
    21.2158  21.2637  21.3130  21.3532  22.3617  22.4391  22.7884  23.4289
    24.2215  24.4388  24.9830  25.0830  25.3231  25.8029  26.5162  27.3507
    28.3285  28.4838  29.4695  29.6573  30.1708  30.2694

          k = 0.4500 0.1321-0.0419 ( 23365 PWs)   bands (ev):

   -63.8736 -63.7996 -63.7323 -63.6977 -63.6410 -57.8923 -57.8036 -57.8012
   -57.8004 -57.7913 -57.7841 -57.7466 -29.6472 -29.6350 -29.6059 -29.5965
   -29.5770 -29.5478 -29.4968 -29.4827 -29.4740 -29.4659 -29.4586 -29.4152
   -29.3891 -29.3416 -29.2929 -25.9763 -25.9365 -25.9072 -25.8655 -25.8581
   -25.8380 -25.7938 -25.7227 -25.7144 -25.6947 -25.6753 -25.6422 -25.6355
   -25.6225 -25.5972 -25.5847 -25.5785 -25.5717 -25.5610 -25.5436 -25.5244
    15.4471  15.5618  15.6039  15.6121  15.7932  15.8228  15.8311  15.8936
    15.9023  16.0028  16.0106  16.0259  16.0709  16.0815  16.2734  16.3150
    16.4058  16.4592  16.7096  16.7832  17.2671  17.4652  17.6383  17.7358
    18.0105  18.0662  18.1501  18.2049  18.2471  18.3302  18.3756  18.4407
    18.5203  18.6149  18.7286  18.8894  19.1994  19.2396  19.3183  19.3726
    19.4299  19.4656  19.5362  19.6387  19.9444  20.0618  20.1191  20.2301
    20.3614  20.4008  20.5523  20.5991  20.6776  20.7243  20.8238  20.9045
    21.0407  21.1955  21.2501  21.2979  21.8401  22.2061  23.3992  23.5549
    24.0736  24.1641  24.4673  25.4512  25.7546  26.0605  26.5295  27.3721
    28.3869  28.6256  29.2496  29.4913  29.7944  30.2313

          k = 0.4500-0.1327 0.0419 ( 23372 PWs)   bands (ev):

   -63.8736 -63.7996 -63.7323 -63.6977 -63.6410 -57.8923 -57.8036 -57.8013
   -57.8004 -57.7913 -57.7841 -57.7466 -29.6472 -29.6350 -29.6059 -29.5965
   -29.5770 -29.5478 -29.4968 -29.4827 -29.4740 -29.4659 -29.4586 -29.4152
   -29.3891 -29.3416 -29.2929 -25.9764 -25.9365 -25.9069 -25.8655 -25.8584
   -25.8378 -25.7940 -25.7227 -25.7144 -25.6947 -25.6751 -25.6421 -25.6355
   -25.6226 -25.5973 -25.5847 -25.5784 -25.5718 -25.5610 -25.5435 -25.5244
    15.4463  15.5606  15.6041  15.6116  15.7944  15.8233  15.8302  15.8941
    15.9030  16.0022  16.0099  16.0265  16.0710  16.0819  16.2727  16.3165
    16.4067  16.4585  16.7093  16.7851  17.2711  17.4636  17.6330  17.7347
    18.0129  18.0661  18.1495  18.2081  18.2455  18.3283  18.3716  18.4413
    18.5225  18.6140  18.7267  18.8934  19.2000  19.2415  19.3177  19.3705
    19.4302  19.4664  19.5346  19.6409  19.9417  20.0624  20.1203  20.2314
    20.3597  20.4001  20.5515  20.5990  20.6779  20.7241  20.8249  20.9053
    21.0403  21.1952  21.2493  21.2988  21.8393  22.2055  23.4093  23.5591
    24.0732  24.1583  24.4687  25.4341  25.7417  26.0679  26.5293  27.3898
    28.4025  28.6462  29.2527  29.4737  29.7806  30.2193

          k = 0.4499-0.1327 0.1256 ( 23378 PWs)   bands (ev):

   -63.8736 -63.7996 -63.7323 -63.6977 -63.6410 -57.8923 -57.8036 -57.8011
   -57.8005 -57.7913 -57.7841 -57.7466 -29.6472 -29.6351 -29.6058 -29.5965
   -29.5774 -29.5481 -29.4968 -29.4827 -29.4740 -29.4660 -29.4586 -29.4152
   -29.3886 -29.3416 -29.2927 -25.9756 -25.9337 -25.9061 -25.8646 -25.8634
   -25.8448 -25.7869 -25.7205 -25.7081 -25.6909 -25.6738 -25.6554 -25.6388
   -25.6197 -25.5958 -25.5856 -25.5747 -25.5734 -25.5632 -25.5431 -25.5256
    15.4255  15.4619  15.6562  15.7242  15.7630  15.8120  15.8302  15.8793
    15.9249  15.9514  15.9763  16.0410  16.1094  16.1782  16.2140  16.2461
    16.8097  16.8297  17.0553  17.0737  17.2110  17.3264  17.4450  17.5682
    17.8272  17.9644  17.9997  18.1169  18.1546  18.2470  18.3151  18.3411
    18.5832  18.6312  18.6473  18.6927  18.7724  18.8030  18.8326  18.9108
    19.1181  19.3003  19.7976  19.8476  19.9351  20.0876  20.3642  20.4308
    20.5202  20.6375  20.6664  20.7671  20.8463  20.9346  20.9979  21.1472
    21.2160  21.2634  21.3132  21.3535  22.3605  22.4343  22.7941  23.4283
    24.2273  24.4395  24.9728  25.0752  25.3259  25.8149  26.4986  27.3648
    28.3442  28.5002  29.4535  29.6406  30.1559  30.2499

          k = 0.4501-0.1329-0.1256 ( 23373 PWs)   bands (ev):

   -63.8736 -63.7996 -63.7323 -63.6977 -63.6410 -57.8923 -57.8036 -57.8013
   -57.8003 -57.7913 -57.7841 -57.7466 -29.6472 -29.6351 -29.6059 -29.5965
   -29.5774 -29.5481 -29.4968 -29.4826 -29.4741 -29.4660 -29.4586 -29.4152
   -29.3886 -29.3416 -29.2927 -25.9751 -25.9332 -25.9092 -25.8706 -25.8582
   -25.8407 -25.7832 -25.7282 -25.7108 -25.6885 -25.6762 -25.6511 -25.6379
   -25.6185 -25.5948 -25.5856 -25.5773 -25.5718 -25.5633 -25.5439 -25.5255
    15.4273  15.4620  15.6544  15.7243  15.7636  15.8008  15.8366  15.8803
    15.9190  15.9469  15.9860  16.0465  16.1073  16.1860  16.2005  16.2552
    16.8139  16.8321  17.0400  17.0512  17.2379  17.3193  17.4670  17.5690
    17.8084  17.9356  18.0038  18.1278  18.1736  18.2500  18.3453  18.3740
    18.5410  18.6050  18.6426  18.7047  18.7414  18.7806  18.8324  18.9290
    19.1333  19.2976  19.8270  19.8547  19.9427  20.0690  20.3354  20.4300
    20.5418  20.6482  20.6844  20.7726  20.8428  20.9716  20.9983  21.1007
    21.1600  21.2746  21.3117  21.3723  22.3505  22.4328  22.8129  23.4204
    24.2088  24.4537  24.9956  25.0781  25.3364  25.7885  26.5071  27.3554
    28.3398  28.5009  29.4427  29.6691  30.0823  30.3009

          k = 0.4500-0.1328-0.0419 ( 23370 PWs)   bands (ev):

   -63.8736 -63.7996 -63.7323 -63.6977 -63.6410 -57.8923 -57.8035 -57.8014
   -57.8002 -57.7913 -57.7841 -57.7466 -29.6472 -29.6350 -29.6059 -29.5965
   -29.5770 -29.5478 -29.4968 -29.4826 -29.4741 -29.4659 -29.4586 -29.4152
   -29.3891 -29.3416 -29.2929 -25.9759 -25.9361 -25.9095 -25.8702 -25.8538
   -25.8347 -25.7904 -25.7319 -25.7134 -25.6940 -25.6767 -25.6408 -25.6318
   -25.6217 -25.5975 -25.5838 -25.5806 -25.5712 -25.5608 -25.5445 -25.5244
    15.4462  15.5648  15.6071  15.6092  15.7852  15.8180  15.8360  15.8877
    15.9033  16.0013  16.0150  16.0327  16.0655  16.0816  16.2785  16.3247
    16.4041  16.4622  16.7038  16.7779  17.2735  17.4583  17.6375  17.7369
    18.0091  18.0637  18.1594  18.1955  18.2546  18.3343  18.3840  18.4585
    18.5137  18.6100  18.7273  18.8501  19.1822  19.2363  19.2906  19.3600
    19.4458  19.5022  19.5721  19.6579  19.9068  20.0471  20.1124  20.2638
    20.3859  20.4110  20.5569  20.6150  20.6711  20.7298  20.7778  20.9030
    21.0445  21.1897  21.2430  21.2880  21.8440  22.2053  23.4211  23.5440
    24.0724  24.1666  24.4659  25.4618  25.7305  26.0621  26.5310  27.3800
    28.3994  28.6353  29.2752  29.4639  29.8338  30.1233

          k = 0.4500-0.0444 0.0419 ( 23394 PWs)   bands (ev):

   -63.8736 -63.7996 -63.7323 -63.6977 -63.6410 -57.8923 -57.8036 -57.8011
   -57.8005 -57.7913 -57.7841 -57.7466 -29.6474 -29.6350 -29.6060 -29.5965
   -29.5770 -29.5478 -29.4967 -29.4832 -29.4732 -29.4658 -29.4588 -29.4150
   -29.3891 -29.3418 -29.2930 -25.9850 -25.9365 -25.8888 -25.8643 -25.8601
   -25.8346 -25.8029 -25.7311 -25.7132 -25.6906 -25.6735 -25.6490 -25.6391
   -25.6187 -25.5976 -25.5843 -25.5744 -25.5729 -25.5598 -25.5429 -25.5244
    15.2875  15.3458  15.3776  15.4237  15.6472  15.7027  15.7295  15.7914
    15.9623  16.0738  16.3354  16.3502  16.3813  16.4261  16.4494  16.5804
    16.8242  16.8523  16.8750  16.9207  17.2025  17.2817  17.5251  17.6053
    17.6517  17.6683  17.6992  17.7904  17.8222  17.8367  17.9247  17.9898
    18.8008  18.8647  18.9823  19.0206  19.1366  19.2110  19.4071  19.5197
    19.5733  19.8718  19.9605  20.0479  20.1554  20.2337  20.3011  20.3570
    20.4337  20.5457  20.5752  20.6617  20.7106  20.7829  20.8720  21.0147
    21.0765  21.1308  21.2130  21.2598  21.6616  22.3726  22.5050  22.7526
    23.0742  24.2272  25.0759  25.1680  25.5413  26.4917  26.7532  27.9065
    28.2439  28.4747  28.8142  28.9127  29.3638  30.1084

          k = 0.4499-0.0444 0.1256 ( 23393 PWs)   bands (ev):

   -63.8736 -63.7996 -63.7323 -63.6977 -63.6410 -57.8923 -57.8036 -57.8014
   -57.8003 -57.7913 -57.7841 -57.7466 -29.6473 -29.6351 -29.6060 -29.5966
   -29.5774 -29.5481 -29.4967 -29.4830 -29.4734 -29.4658 -29.4589 -29.4150
   -29.3886 -29.3418 -29.2928 -25.9837 -25.9331 -25.8955 -25.8701 -25.8561
   -25.8366 -25.7878 -25.7393 -25.7128 -25.6843 -25.6791 -25.6532 -25.6368
   -25.6168 -25.5944 -25.5826 -25.5777 -25.5719 -25.5619 -25.5442 -25.5256
    15.2027  15.2284  15.4978  15.5183  15.5486  15.6011  15.9747  16.0142
    16.0980  16.1997  16.2573  16.2691  16.3747  16.4205  16.5451  16.6887
    16.8405  16.8568  16.9271  16.9785  17.1889  17.2695  17.3431  17.5179
    17.5301  17.6209  17.6570  17.7081  17.8437  18.0228  18.1188  18.2425
    18.3323  18.5100  18.5319  18.6261  19.1844  19.2368  19.2656  19.3271
    19.4777  19.5633  19.8140  19.9181  19.9621  20.2622  20.3257  20.4239
    20.4907  20.6635  20.7283  20.7728  20.8405  20.9278  21.0186  21.0392
    21.0883  21.2414  21.3152  21.3504  22.4261  22.5558  22.9192  23.5947
    23.7427  24.2400  24.4288  24.6274  24.7865  25.0333  27.9710  28.1851
    28.3461  28.8199  29.0140  29.0473  29.2952  30.6619

          k = 0.4501-0.0446-0.1256 ( 23403 PWs)   bands (ev):

   -63.8736 -63.7996 -63.7323 -63.6977 -63.6410 -57.8923 -57.8035 -57.8016
   -57.8001 -57.7913 -57.7841 -57.7466 -29.6473 -29.6351 -29.6060 -29.5966
   -29.5774 -29.5481 -29.4967 -29.4829 -29.4736 -29.4658 -29.4589 -29.4150
   -29.3886 -29.3418 -29.2928 -25.9834 -25.9325 -25.8989 -25.8743 -25.8499
   -25.8347 -25.7834 -25.7462 -25.7137 -25.6888 -25.6764 -25.6526 -25.6338
   -25.6145 -25.5953 -25.5833 -25.5785 -25.5712 -25.5618 -25.5451 -25.5256
    15.2029  15.2291  15.4976  15.5154  15.5511  15.6002  15.9749  16.0142
    16.0957  16.1988  16.2573  16.2682  16.3797  16.4239  16.5459  16.6884
    16.8345  16.8548  16.9289  16.9818  17.1835  17.2751  17.3354  17.4959
    17.5553  17.6154  17.6629  17.7072  17.8603  18.0069  18.1302  18.2432
    18.3394  18.5145  18.5252  18.6253  19.1380  19.2291  19.2559  19.2882
    19.5217  19.6152  19.8159  19.8914  19.9691  20.2685  20.3870  20.4231
    20.5564  20.6241  20.6862  20.7439  20.8508  20.9166  20.9877  21.0339
    21.0659  21.2678  21.3160  21.3678  22.4265  22.5585  22.9075  23.5788
    23.7849  24.2407  24.4351  24.6171  24.7910  25.0144  27.9807  28.1894
    28.3439  28.8184  29.0078  29.0424  29.3154  30.6492

          k = 0.4500-0.0445-0.0419 ( 23387 PWs)   bands (ev):

   -63.8736 -63.7996 -63.7323 -63.6977 -63.6410 -57.8923 -57.8035 -57.8014
   -57.8003 -57.7913 -57.7841 -57.7466 -29.6473 -29.6350 -29.6060 -29.5965
   -29.5770 -29.5478 -29.4967 -29.4831 -29.4733 -29.4658 -29.4588 -29.4151
   -29.3891 -29.3418 -29.2930 -25.9847 -25.9359 -25.8938 -25.8666 -25.8553
   -25.8316 -25.7997 -25.7376 -25.7142 -25.6876 -25.6790 -25.6466 -25.6344
   -25.6193 -25.5969 -25.5832 -25.5782 -25.5713 -25.5595 -25.5438 -25.5244
    15.2874  15.3464  15.3785  15.4250  15.6448  15.6953  15.7340  15.7903
    15.9639  16.0770  16.3304  16.3507  16.3859  16.4319  16.4451  16.5775
    16.8256  16.8484  16.8743  16.9278  17.2036  17.2751  17.5234  17.5869
    17.6429  17.6845  17.7052  17.7987  17.8219  17.8365  17.9335  17.9943
    18.7965  18.8534  18.9728  19.0113  19.1333  19.2048  19.4250  19.5266
    19.5926  19.8818  19.9612  19.9921  20.0694  20.2569  20.3634  20.4114
    20.4741  20.5461  20.6289  20.6463  20.6930  20.7777  20.8443  20.9990
    21.0633  21.1091  21.1911  21.2724  21.6500  22.3770  22.5235  22.7458
    23.0840  24.2268  25.0776  25.1593  25.5460  26.4786  26.7584  27.9244
    28.2442  28.4778  28.8154  28.9024  29.3630  30.1066

     the Fermi energy is    20.7082 ev

!    total energy              =   -2784.46619983 Ry
     estimated scf accuracy    <          9.1E-09 Ry
     smearing contrib. (-TS)   =      -0.00619118 Ry
     internal energy E=F+TS    =   -2784.46000864 Ry

     The total energy is F=E-TS. E is the sum of the following terms:
     one-electron contribution =    -743.39595099 Ry
     hartree contribution      =     501.89475513 Ry
     xc contribution           =    -277.45489748 Ry
     ewald contribution        =   -2265.50391531 Ry

     convergence has been achieved in  30 iterations

     Forces acting on atoms (cartesian axes, Ry/au):

     atom    1 type  1   force =     0.00001884   -0.00840279   -0.00003371
     atom    2 type  1   force =     0.00000847    0.00124610    0.00027532
     atom    3 type  1   force =    -0.00002598    0.00024347    0.00273853
     atom    4 type  1   force =    -0.00001238    0.00483092    0.00215594
     atom    5 type  1   force =     0.00000254    0.00272785   -0.00613108
     atom    6 type  2   force =    -0.00000682    0.00229643    0.00228595
     atom    7 type  2   force =     0.00001000    0.00211892   -0.00039007
     atom    8 type  2   force =    -0.00003844    0.00037052   -0.00041803
     atom    9 type  2   force =     0.00004972    0.00148488   -0.00027581
     atom   10 type  2   force =    -0.00001909   -0.00052664    0.00028038
     atom   11 type  2   force =     0.00001700   -0.00194501   -0.00195331
     atom   12 type  2   force =    -0.00000388   -0.00444466    0.00146589

     Total force =     0.014157     Total SCF correction =     0.000701


     Computing stress (Cartesian axis) and pressure

          total   stress  (Ry/bohr**3)                   (kbar)     P=      -37.09
  -0.00026030  -0.00000554  -0.00000341          -38.29       -0.81       -0.50
  -0.00000554  -0.00027013  -0.00000434           -0.81      -39.74       -0.64
  -0.00000341  -0.00000434  -0.00022605           -0.50       -0.64      -33.25


     Writing all to output data dir /home/tenant3/nexus-mat/dft/runs/dft-static-v3-worker-04/jobs/Pd-Rh-16_Pd5Rh7/tmp/Pd-Rh-16_Pd5Rh7.save/ :
     XML data file, charge density, pseudopotentials, collected wavefunctions

     init_run     :    424.65s CPU    437.45s WALL (       1 calls)
     electrons    :  40742.63s CPU  40893.31s WALL (       1 calls)
     forces       :    289.03s CPU    289.12s WALL (       1 calls)
     stress       :    946.88s CPU    948.32s WALL (       1 calls)

     Called by init_run:
     wfcinit      :    423.73s CPU    433.82s WALL (       1 calls)
     potinit      :      0.49s CPU      1.97s WALL (       1 calls)
     hinit0       :      0.18s CPU      0.71s WALL (       1 calls)

     Called by electrons:
     c_bands      :  39536.52s CPU  39684.93s WALL (      31 calls)
     sum_band     :   1187.30s CPU   1188.56s WALL (      31 calls)
     v_of_rho     :     14.38s CPU     16.41s WALL (      31 calls)
     mix_rho      :      3.20s CPU      3.26s WALL (      31 calls)

     Called by c_bands:
     init_us_2    :     96.12s CPU     96.46s WALL (    5200 calls)
     cegterg      :  39290.89s CPU  39438.62s WALL (    2480 calls)

     Called by *egterg:
     cdiaghg      :    120.99s CPU    121.02s WALL (    5670 calls)
     h_psi        :  17817.59s CPU  17879.58s WALL (    5830 calls)
     g_psi        :     25.44s CPU     25.45s WALL (    3270 calls)

     Called by h_psi:
     h_psi:calbec :   7730.58s CPU   7734.07s WALL (    5830 calls)
     vloc_psi     :   3780.88s CPU   3786.61s WALL (    5830 calls)
                                        0.00s GPU  (    5830 calls)
     add_vuspsi   :   6270.07s CPU   6272.97s WALL (    5830 calls)

     General routines
     calbec       :   8942.09s CPU   8945.66s WALL (    7190 calls)
     fft          :      8.79s CPU      9.31s WALL (     378 calls)
     ffts         :      0.30s CPU      0.32s WALL (      62 calls)
     fftw         :   3888.88s CPU   3893.78s WALL ( 1608812 calls)
     interpolate  :      1.12s CPU      1.20s WALL (      31 calls)


     PWSCF        :     11h46m CPU     11h49m WALL


   This run was terminated on:   2:43:33  21Jul2026            

=------------------------------------------------------------------------------=
   JOB DONE.
=------------------------------------------------------------------------------=
